    1C
    1UUSER                                                              
    1UDATE              31.december.2013                                
    1UTIME              00:41:36                                        
    1UHOST                                                              
    1UPGM               CalculiX                                        
    1UDIR                                                               
    1UDBN                                                               
    2C                           261                                     1
 -1         1 0.00000E+00 0.00000E+00 0.00000E+00
 -1         2 1.00000E+00 0.00000E+00 0.00000E+00
 -1         3 1.00000E+00 1.00000E+00 0.00000E+00
 -1         4 0.00000E+00 1.00000E+00 0.00000E+00
 -1         5 0.00000E+00 0.00000E+00 8.00000E+00
 -1         6 1.00000E+00 0.00000E+00 8.00000E+00
 -1         7 1.00000E+00 1.00000E+00 8.00000E+00
 -1         8 0.00000E+00 1.00000E+00 8.00000E+00
 -1         9 2.50000E-01 0.00000E+00 0.00000E+00
 -1        10 5.00000E-01 0.00000E+00 0.00000E+00
 -1        11 7.50000E-01 0.00000E+00 0.00000E+00
 -1        12 1.00000E+00 2.50000E-01 0.00000E+00
 -1        13 1.00000E+00 5.00000E-01 0.00000E+00
 -1        14 1.00000E+00 7.50000E-01 0.00000E+00
 -1        15 7.50000E-01 1.00000E+00 0.00000E+00
 -1        16 5.00000E-01 1.00000E+00 0.00000E+00
 -1        17 2.50000E-01 1.00000E+00 0.00000E+00
 -1        18 0.00000E+00 7.50000E-01 0.00000E+00
 -1        19 0.00000E+00 5.00000E-01 0.00000E+00
 -1        20 0.00000E+00 2.50000E-01 0.00000E+00
 -1        21 2.50000E-01 0.00000E+00 8.00000E+00
 -1        22 5.00000E-01 0.00000E+00 8.00000E+00
 -1        23 7.50000E-01 0.00000E+00 8.00000E+00
 -1        24 1.00000E+00 2.50000E-01 8.00000E+00
 -1        25 1.00000E+00 5.00000E-01 8.00000E+00
 -1        26 1.00000E+00 7.50000E-01 8.00000E+00
 -1        27 7.50000E-01 1.00000E+00 8.00000E+00
 -1        28 5.00000E-01 1.00000E+00 8.00000E+00
 -1        29 2.50000E-01 1.00000E+00 8.00000E+00
 -1        30 0.00000E+00 7.50000E-01 8.00000E+00
 -1        31 0.00000E+00 5.00000E-01 8.00000E+00
 -1        32 0.00000E+00 2.50000E-01 8.00000E+00
 -1        33 1.00000E+00 0.00000E+00 5.00000E-01
 -1        34 1.00000E+00 0.00000E+00 1.00000E+00
 -1        35 1.00000E+00 0.00000E+00 1.50000E+00
 -1        36 1.00000E+00 0.00000E+00 2.00000E+00
 -1        37 1.00000E+00 0.00000E+00 2.50000E+00
 -1        38 1.00000E+00 0.00000E+00 3.00000E+00
 -1        39 1.00000E+00 0.00000E+00 3.50000E+00
 -1        40 1.00000E+00 0.00000E+00 4.00000E+00
 -1        41 1.00000E+00 0.00000E+00 4.50000E+00
 -1        42 1.00000E+00 0.00000E+00 5.00000E+00
 -1        43 1.00000E+00 0.00000E+00 5.50000E+00
 -1        44 1.00000E+00 0.00000E+00 6.00000E+00
 -1        45 1.00000E+00 0.00000E+00 6.50000E+00
 -1        46 1.00000E+00 0.00000E+00 7.00000E+00
 -1        47 1.00000E+00 0.00000E+00 7.50000E+00
 -1        48 0.00000E+00 0.00000E+00 7.50000E+00
 -1        49 0.00000E+00 0.00000E+00 7.00000E+00
 -1        50 0.00000E+00 0.00000E+00 6.50000E+00
 -1        51 0.00000E+00 0.00000E+00 6.00000E+00
 -1        52 0.00000E+00 0.00000E+00 5.50000E+00
 -1        53 0.00000E+00 0.00000E+00 5.00000E+00
 -1        54 0.00000E+00 0.00000E+00 4.50000E+00
 -1        55 0.00000E+00 0.00000E+00 4.00000E+00
 -1        56 0.00000E+00 0.00000E+00 3.50000E+00
 -1        57 0.00000E+00 0.00000E+00 3.00000E+00
 -1        58 0.00000E+00 0.00000E+00 2.50000E+00
 -1        59 0.00000E+00 0.00000E+00 2.00000E+00
 -1        60 0.00000E+00 0.00000E+00 1.50000E+00
 -1        61 0.00000E+00 0.00000E+00 1.00000E+00
 -1        62 0.00000E+00 0.00000E+00 5.00000E-01
 -1        63 1.00000E+00 1.00000E+00 5.00000E-01
 -1        64 1.00000E+00 1.00000E+00 1.00000E+00
 -1        65 1.00000E+00 1.00000E+00 1.50000E+00
 -1        66 1.00000E+00 1.00000E+00 2.00000E+00
 -1        67 1.00000E+00 1.00000E+00 2.50000E+00
 -1        68 1.00000E+00 1.00000E+00 3.00000E+00
 -1        69 1.00000E+00 1.00000E+00 3.50000E+00
 -1        70 1.00000E+00 1.00000E+00 4.00000E+00
 -1        71 1.00000E+00 1.00000E+00 4.50000E+00
 -1        72 1.00000E+00 1.00000E+00 5.00000E+00
 -1        73 1.00000E+00 1.00000E+00 5.50000E+00
 -1        74 1.00000E+00 1.00000E+00 6.00000E+00
 -1        75 1.00000E+00 1.00000E+00 6.50000E+00
 -1        76 1.00000E+00 1.00000E+00 7.00000E+00
 -1        77 1.00000E+00 1.00000E+00 7.50000E+00
 -1        78 0.00000E+00 1.00000E+00 5.00000E-01
 -1        79 0.00000E+00 1.00000E+00 1.00000E+00
 -1        80 0.00000E+00 1.00000E+00 1.50000E+00
 -1        81 0.00000E+00 1.00000E+00 2.00000E+00
 -1        82 0.00000E+00 1.00000E+00 2.50000E+00
 -1        83 0.00000E+00 1.00000E+00 3.00000E+00
 -1        84 0.00000E+00 1.00000E+00 3.50000E+00
 -1        85 0.00000E+00 1.00000E+00 4.00000E+00
 -1        86 0.00000E+00 1.00000E+00 4.50000E+00
 -1        87 0.00000E+00 1.00000E+00 5.00000E+00
 -1        88 0.00000E+00 1.00000E+00 5.50000E+00
 -1        89 0.00000E+00 1.00000E+00 6.00000E+00
 -1        90 0.00000E+00 1.00000E+00 6.50000E+00
 -1        91 0.00000E+00 1.00000E+00 7.00000E+00
 -1        92 0.00000E+00 1.00000E+00 7.50000E+00
 -1        93 5.00000E-01 2.50000E-01 0.00000E+00
 -1        94 2.50000E-01 5.00000E-01 0.00000E+00
 -1        95 5.00000E-01 5.00000E-01 0.00000E+00
 -1        96 7.50000E-01 5.00000E-01 0.00000E+00
 -1        97 5.00000E-01 7.50000E-01 0.00000E+00
 -1        98 5.00000E-01 2.50000E-01 8.00000E+00
 -1        99 2.50000E-01 5.00000E-01 8.00000E+00
 -1       100 5.00000E-01 5.00000E-01 8.00000E+00
 -1       101 7.50000E-01 5.00000E-01 8.00000E+00
 -1       102 5.00000E-01 7.50000E-01 8.00000E+00
 -1       103 5.00000E-01 0.00000E+00 5.00000E-01
 -1       104 2.50000E-01 0.00000E+00 1.00000E+00
 -1       105 5.00000E-01 0.00000E+00 1.00000E+00
 -1       106 7.50000E-01 0.00000E+00 1.00000E+00
 -1       107 5.00000E-01 0.00000E+00 1.50000E+00
 -1       108 2.50000E-01 0.00000E+00 2.00000E+00
 -1       109 5.00000E-01 0.00000E+00 2.00000E+00
 -1       110 7.50000E-01 0.00000E+00 2.00000E+00
 -1       111 5.00000E-01 0.00000E+00 2.50000E+00
 -1       112 2.50000E-01 0.00000E+00 3.00000E+00
 -1       113 5.00000E-01 0.00000E+00 3.00000E+00
 -1       114 7.50000E-01 0.00000E+00 3.00000E+00
 -1       115 5.00000E-01 0.00000E+00 3.50000E+00
 -1       116 2.50000E-01 0.00000E+00 4.00000E+00
 -1       117 5.00000E-01 0.00000E+00 4.00000E+00
 -1       118 7.50000E-01 0.00000E+00 4.00000E+00
 -1       119 5.00000E-01 0.00000E+00 4.50000E+00
 -1       120 2.50000E-01 0.00000E+00 5.00000E+00
 -1       121 5.00000E-01 0.00000E+00 5.00000E+00
 -1       122 7.50000E-01 0.00000E+00 5.00000E+00
 -1       123 5.00000E-01 0.00000E+00 5.50000E+00
 -1       124 2.50000E-01 0.00000E+00 6.00000E+00
 -1       125 5.00000E-01 0.00000E+00 6.00000E+00
 -1       126 7.50000E-01 0.00000E+00 6.00000E+00
 -1       127 5.00000E-01 0.00000E+00 6.50000E+00
 -1       128 2.50000E-01 0.00000E+00 7.00000E+00
 -1       129 5.00000E-01 0.00000E+00 7.00000E+00
 -1       130 7.50000E-01 0.00000E+00 7.00000E+00
 -1       131 5.00000E-01 0.00000E+00 7.50000E+00
 -1       132 1.00000E+00 5.00000E-01 5.00000E-01
 -1       133 1.00000E+00 2.50000E-01 1.00000E+00
 -1       134 1.00000E+00 5.00000E-01 1.00000E+00
 -1       135 1.00000E+00 7.50000E-01 1.00000E+00
 -1       136 1.00000E+00 5.00000E-01 1.50000E+00
 -1       137 1.00000E+00 2.50000E-01 2.00000E+00
 -1       138 1.00000E+00 5.00000E-01 2.00000E+00
 -1       139 1.00000E+00 7.50000E-01 2.00000E+00
 -1       140 1.00000E+00 5.00000E-01 2.50000E+00
 -1       141 1.00000E+00 2.50000E-01 3.00000E+00
 -1       142 1.00000E+00 5.00000E-01 3.00000E+00
 -1       143 1.00000E+00 7.50000E-01 3.00000E+00
 -1       144 1.00000E+00 5.00000E-01 3.50000E+00
 -1       145 1.00000E+00 2.50000E-01 4.00000E+00
 -1       146 1.00000E+00 5.00000E-01 4.00000E+00
 -1       147 1.00000E+00 7.50000E-01 4.00000E+00
 -1       148 1.00000E+00 5.00000E-01 4.50000E+00
 -1       149 1.00000E+00 2.50000E-01 5.00000E+00
 -1       150 1.00000E+00 5.00000E-01 5.00000E+00
 -1       151 1.00000E+00 7.50000E-01 5.00000E+00
 -1       152 1.00000E+00 5.00000E-01 5.50000E+00
 -1       153 1.00000E+00 2.50000E-01 6.00000E+00
 -1       154 1.00000E+00 5.00000E-01 6.00000E+00
 -1       155 1.00000E+00 7.50000E-01 6.00000E+00
 -1       156 1.00000E+00 5.00000E-01 6.50000E+00
 -1       157 1.00000E+00 2.50000E-01 7.00000E+00
 -1       158 1.00000E+00 5.00000E-01 7.00000E+00
 -1       159 1.00000E+00 7.50000E-01 7.00000E+00
 -1       160 1.00000E+00 5.00000E-01 7.50000E+00
 -1       161 5.00000E-01 1.00000E+00 5.00000E-01
 -1       162 7.50000E-01 1.00000E+00 1.00000E+00
 -1       163 5.00000E-01 1.00000E+00 1.00000E+00
 -1       164 2.50000E-01 1.00000E+00 1.00000E+00
 -1       165 5.00000E-01 1.00000E+00 1.50000E+00
 -1       166 7.50000E-01 1.00000E+00 2.00000E+00
 -1       167 5.00000E-01 1.00000E+00 2.00000E+00
 -1       168 2.50000E-01 1.00000E+00 2.00000E+00
 -1       169 5.00000E-01 1.00000E+00 2.50000E+00
 -1       170 7.50000E-01 1.00000E+00 3.00000E+00
 -1       171 5.00000E-01 1.00000E+00 3.00000E+00
 -1       172 2.50000E-01 1.00000E+00 3.00000E+00
 -1       173 5.00000E-01 1.00000E+00 3.50000E+00
 -1       174 7.50000E-01 1.00000E+00 4.00000E+00
 -1       175 5.00000E-01 1.00000E+00 4.00000E+00
 -1       176 2.50000E-01 1.00000E+00 4.00000E+00
 -1       177 5.00000E-01 1.00000E+00 4.50000E+00
 -1       178 7.50000E-01 1.00000E+00 5.00000E+00
 -1       179 5.00000E-01 1.00000E+00 5.00000E+00
 -1       180 2.50000E-01 1.00000E+00 5.00000E+00
 -1       181 5.00000E-01 1.00000E+00 5.50000E+00
 -1       182 7.50000E-01 1.00000E+00 6.00000E+00
 -1       183 5.00000E-01 1.00000E+00 6.00000E+00
 -1       184 2.50000E-01 1.00000E+00 6.00000E+00
 -1       185 5.00000E-01 1.00000E+00 6.50000E+00
 -1       186 7.50000E-01 1.00000E+00 7.00000E+00
 -1       187 5.00000E-01 1.00000E+00 7.00000E+00
 -1       188 2.50000E-01 1.00000E+00 7.00000E+00
 -1       189 5.00000E-01 1.00000E+00 7.50000E+00
 -1       190 0.00000E+00 5.00000E-01 5.00000E-01
 -1       191 0.00000E+00 7.50000E-01 1.00000E+00
 -1       192 0.00000E+00 5.00000E-01 1.00000E+00
 -1       193 0.00000E+00 2.50000E-01 1.00000E+00
 -1       194 0.00000E+00 5.00000E-01 1.50000E+00
 -1       195 0.00000E+00 7.50000E-01 2.00000E+00
 -1       196 0.00000E+00 5.00000E-01 2.00000E+00
 -1       197 0.00000E+00 2.50000E-01 2.00000E+00
 -1       198 0.00000E+00 5.00000E-01 2.50000E+00
 -1       199 0.00000E+00 7.50000E-01 3.00000E+00
 -1       200 0.00000E+00 5.00000E-01 3.00000E+00
 -1       201 0.00000E+00 2.50000E-01 3.00000E+00
 -1       202 0.00000E+00 5.00000E-01 3.50000E+00
 -1       203 0.00000E+00 7.50000E-01 4.00000E+00
 -1       204 0.00000E+00 5.00000E-01 4.00000E+00
 -1       205 0.00000E+00 2.50000E-01 4.00000E+00
 -1       206 0.00000E+00 5.00000E-01 4.50000E+00
 -1       207 0.00000E+00 7.50000E-01 5.00000E+00
 -1       208 0.00000E+00 5.00000E-01 5.00000E+00
 -1       209 0.00000E+00 2.50000E-01 5.00000E+00
 -1       210 0.00000E+00 5.00000E-01 5.50000E+00
 -1       211 0.00000E+00 7.50000E-01 6.00000E+00
 -1       212 0.00000E+00 5.00000E-01 6.00000E+00
 -1       213 0.00000E+00 2.50000E-01 6.00000E+00
 -1       214 0.00000E+00 5.00000E-01 6.50000E+00
 -1       215 0.00000E+00 7.50000E-01 7.00000E+00
 -1       216 0.00000E+00 5.00000E-01 7.00000E+00
 -1       217 0.00000E+00 2.50000E-01 7.00000E+00
 -1       218 0.00000E+00 5.00000E-01 7.50000E+00
 -1       219 5.00000E-01 5.00000E-01 5.00000E-01
 -1       220 5.00000E-01 2.50000E-01 1.00000E+00
 -1       221 2.50000E-01 5.00000E-01 1.00000E+00
 -1       222 5.00000E-01 5.00000E-01 1.00000E+00
 -1       223 7.50000E-01 5.00000E-01 1.00000E+00
 -1       224 5.00000E-01 7.50000E-01 1.00000E+00
 -1       225 5.00000E-01 5.00000E-01 1.50000E+00
 -1       226 5.00000E-01 2.50000E-01 2.00000E+00
 -1       227 2.50000E-01 5.00000E-01 2.00000E+00
 -1       228 5.00000E-01 5.00000E-01 2.00000E+00
 -1       229 7.50000E-01 5.00000E-01 2.00000E+00
 -1       230 5.00000E-01 7.50000E-01 2.00000E+00
 -1       231 5.00000E-01 5.00000E-01 2.50000E+00
 -1       232 5.00000E-01 2.50000E-01 3.00000E+00
 -1       233 2.50000E-01 5.00000E-01 3.00000E+00
 -1       234 5.00000E-01 5.00000E-01 3.00000E+00
 -1       235 7.50000E-01 5.00000E-01 3.00000E+00
 -1       236 5.00000E-01 7.50000E-01 3.00000E+00
 -1       237 5.00000E-01 5.00000E-01 3.50000E+00
 -1       238 5.00000E-01 2.50000E-01 4.00000E+00
 -1       239 2.50000E-01 5.00000E-01 4.00000E+00
 -1       240 5.00000E-01 5.00000E-01 4.00000E+00
 -1       241 7.50000E-01 5.00000E-01 4.00000E+00
 -1       242 5.00000E-01 7.50000E-01 4.00000E+00
 -1       243 5.00000E-01 5.00000E-01 4.50000E+00
 -1       244 5.00000E-01 2.50000E-01 5.00000E+00
 -1       245 2.50000E-01 5.00000E-01 5.00000E+00
 -1       246 5.00000E-01 5.00000E-01 5.00000E+00
 -1       247 7.50000E-01 5.00000E-01 5.00000E+00
 -1       248 5.00000E-01 7.50000E-01 5.00000E+00
 -1       249 5.00000E-01 5.00000E-01 5.50000E+00
 -1       250 5.00000E-01 2.50000E-01 6.00000E+00
 -1       251 2.50000E-01 5.00000E-01 6.00000E+00
 -1       252 5.00000E-01 5.00000E-01 6.00000E+00
 -1       253 7.50000E-01 5.00000E-01 6.00000E+00
 -1       254 5.00000E-01 7.50000E-01 6.00000E+00
 -1       255 5.00000E-01 5.00000E-01 6.50000E+00
 -1       256 5.00000E-01 2.50000E-01 7.00000E+00
 -1       257 2.50000E-01 5.00000E-01 7.00000E+00
 -1       258 5.00000E-01 5.00000E-01 7.00000E+00
 -1       259 7.50000E-01 5.00000E-01 7.00000E+00
 -1       260 5.00000E-01 7.50000E-01 7.00000E+00
 -1       261 5.00000E-01 5.00000E-01 7.50000E+00
 -3
    3C                            32                                     1
 -1         1    4    0EL   
 -2         1        10        95        19        61       105       222       192         9        93
 -2        94        20        62       103       219       190       104       220       221       193
 -1         2    4    0EL   
 -2        10         2        13        95       105        34       134       222        11        12
 -2        96        93       103        33       132       219       106       133       223       220
 -1         3    4    0EL   
 -2        19        95        16         4       192       222       163        79        94        97
 -2        17        18       190       219       161        78       221       224       164       191
 -1         4    4    0EL   
 -2        95        13         3        16       222       134        64       163        96        14
 -2        15        97       219       132        63       161       223       135       162       224
 -1         5    4    0EL   
 -2        61       105       222       192        59       109       228       196       104       220
 -2       221       193        60       107       225       194       108       226       227       197
 -1         6    4    0EL   
 -2       105        34       134       222       109        36       138       228       106       133
 -2       223       220       107        35       136       225       110       137       229       226
 -1         7    4    0EL   
 -2       192       222       163        79       196       228       167        81       221       224
 -2       164       191       194       225       165        80       227       230       168       195
 -1         8    4    0EL   
 -2       222       134        64       163       228       138        66       167       223       135
 -2       162       224       225       136        65       165       229       139       166       230
 -1         9    4    0EL   
 -2        59       109       228       196        57       113       234       200       108       226
 -2       227       197        58       111       231       198       112       232       233       201
 -1        10    4    0EL   
 -2       109        36       138       228       113        38       142       234       110       137
 -2       229       226       111        37       140       231       114       141       235       232
 -1        11    4    0EL   
 -2       196       228       167        81       200       234       171        83       227       230
 -2       168       195       198       231       169        82       233       236       172       199
 -1        12    4    0EL   
 -2       228       138        66       167       234       142        68       171       229       139
 -2       166       230       231       140        67       169       235       143       170       236
 -1        13    4    0EL   
 -2        57       113       234       200        55       117       240       204       112       232
 -2       233       201        56       115       237       202       116       238       239       205
 -1        14    4    0EL   
 -2       113        38       142       234       117        40       146       240       114       141
 -2       235       232       115        39       144       237       118       145       241       238
 -1        15    4    0EL   
 -2       200       234       171        83       204       240       175        85       233       236
 -2       172       199       202       237       173        84       239       242       176       203
 -1        16    4    0EL   
 -2       234       142        68       171       240       146        70       175       235       143
 -2       170       236       237       144        69       173       241       147       174       242
 -1        17    4    0EL   
 -2        55       117       240       204        53       121       246       208       116       238
 -2       239       205        54       119       243       206       120       244       245       209
 -1        18    4    0EL   
 -2       117        40       146       240       121        42       150       246       118       145
 -2       241       238       119        41       148       243       122       149       247       244
 -1        19    4    0EL   
 -2       204       240       175        85       208       246       179        87       239       242
 -2       176       203       206       243       177        86       245       248       180       207
 -1        20    4    0EL   
 -2       240       146        70       175       246       150        72       179       241       147
 -2       174       242       243       148        71       177       247       151       178       248
 -1        21    4    0EL   
 -2        53       121       246       208        51       125       252       212       120       244
 -2       245       209        52       123       249       210       124       250       251       213
 -1        22    4    0EL   
 -2       121        42       150       246       125        44       154       252       122       149
 -2       247       244       123        43       152       249       126       153       253       250
 -1        23    4    0EL   
 -2       208       246       179        87       212       252       183        89       245       248
 -2       180       207       210       249       181        88       251       254       184       211
 -1        24    4    0EL   
 -2       246       150        72       179       252       154        74       183       247       151
 -2       178       248       249       152        73       181       253       155       182       254
 -1        25    4    0EL   
 -2        51       125       252       212        49       129       258       216       124       250
 -2       251       213        50       127       255       214       128       256       257       217
 -1        26    4    0EL   
 -2       125        44       154       252       129        46       158       258       126       153
 -2       253       250       127        45       156       255       130       157       259       256
 -1        27    4    0EL   
 -2       212       252       183        89       216       258       187        91       251       254
 -2       184       211       214       255       185        90       257       260       188       215
 -1        28    4    0EL   
 -2       252       154        74       183       258       158        76       187       253       155
 -2       182       254       255       156        75       185       259       159       186       260
 -1        29    4    0EL   
 -2        49       129       258       216         5        22       100        31       128       256
 -2       257       217        48       131       261       218        21        98        99        32
 -1        30    4    0EL   
 -2       129        46       158       258        22         6        25       100       130       157
 -2       259       256       131        47       160       261        23        24       101        98
 -1        31    4    0EL   
 -2       216       258       187        91        31       100        28         8       257       260
 -2       188       215       218       261       189        92        99       102        29        30
 -1        32    4    0EL   
 -2       258       158        76       187       100        25         7        28       259       159
 -2       186       260       261       160        77       189       101        26        27       102
 -3
    1PSTEP                         1           1           2          
    1PGM                1.000000E+00                                  
    1PGK                2.538584E+09                                  
    1PHID                         -1                                  
    1PSUBC                         0                                  
    1PMODE                         1                                  
  100CL  102 8.01892E+03         261                     2    2MODAL      1
 -4  DISP        4    1
 -5  D1          1    2    1    0
 -5  D2          1    2    2    0
 -5  D3          1    2    3    0
 -5  ALL         1    2    0    0    1ALL
 -1         1 0.00000E+00 0.00000E+00 0.00000E+00
 -1         2 0.00000E+00 0.00000E+00 0.00000E+00
 -1         3 0.00000E+00 0.00000E+00 0.00000E+00
 -1         4 0.00000E+00 0.00000E+00 0.00000E+00
 -1         5 7.69136E+02 8.19105E+03 8.39348E+02
 -1         6 7.75162E+02 8.19161E+03 6.94738E+02
 -1         7 7.69136E+02 8.19105E+03-8.39348E+02
 -1         8 7.75162E+02 8.19161E+03-6.94738E+02
 -1         9 0.00000E+00 0.00000E+00 0.00000E+00
 -1        10 0.00000E+00 0.00000E+00 0.00000E+00
 -1        11 0.00000E+00 0.00000E+00 0.00000E+00
 -1        12 0.00000E+00 0.00000E+00 0.00000E+00
 -1        13 0.00000E+00 0.00000E+00 0.00000E+00
 -1        14 0.00000E+00 0.00000E+00 0.00000E+00
 -1        15 0.00000E+00 0.00000E+00 0.00000E+00
 -1        16 0.00000E+00 0.00000E+00 0.00000E+00
 -1        17 0.00000E+00 0.00000E+00 0.00000E+00
 -1        18 0.00000E+00 0.00000E+00 0.00000E+00
 -1        19 0.00000E+00 0.00000E+00 0.00000E+00
 -1        20 0.00000E+00 0.00000E+00 0.00000E+00
 -1        21 7.70808E+02 8.19034E+03 8.01417E+02
 -1        22 7.71942E+02 8.19052E+03 7.63030E+02
 -1        23 7.73568E+02 8.19034E+03 7.29531E+02
 -1        24 7.72061E+02 8.19188E+03 3.09148E+02
 -1        25 7.72072E+02 8.18914E+03-7.19264E+01
 -1        26 7.72050E+02 8.19162E+03-4.53461E+02
 -1        27 7.70808E+02 8.19034E+03-8.01417E+02
 -1        28 7.71942E+02 8.19052E+03-7.63030E+02
 -1        29 7.73568E+02 8.19034E+03-7.29531E+02
 -1        30 7.72061E+02 8.19188E+03-3.09148E+02
 -1        31 7.72072E+02 8.18914E+03 7.19264E+01
 -1        32 7.72050E+02 8.19162E+03 4.53461E+02
 -1        33-2.36865E+01 4.39993E+01 7.58708E+01
 -1        34-4.97568E+00 1.68559E+02 1.53406E+02
 -1        35 1.26955E+01 3.86930E+02 2.27662E+02
 -1        36 4.27044E+01 6.78603E+02 2.97201E+02
 -1        37 7.85583E+01 1.04880E+03 3.61160E+02
 -1        38 1.21665E+02 1.48422E+03 4.20275E+02
 -1        39 1.70395E+02 1.98353E+03 4.73654E+02
 -1        40 2.24644E+02 2.53774E+03 5.21380E+02
 -1        41 2.83489E+02 3.14171E+03 5.62921E+02
 -1        42 3.46372E+02 3.78813E+03 5.98599E+02
 -1        43 4.12752E+02 4.47009E+03 6.28057E+02
 -1        44 4.81742E+02 5.18193E+03 6.51965E+02
 -1        45 5.52550E+02 5.91498E+03 6.69329E+02
 -1        46 6.24502E+02 6.66635E+03 6.82149E+02
 -1        47 6.99516E+02 7.42462E+03 6.88116E+02
 -1        48 7.00241E+02 7.42469E+03 8.31347E+02
 -1        49 6.32363E+02 6.66709E+03 8.24138E+02
 -1        50 5.62682E+02 5.91594E+03 8.08649E+02
 -1        51 4.95319E+02 5.18321E+03 7.87671E+02
 -1        52 4.30141E+02 4.47173E+03 7.58786E+02
 -1        53 3.67991E+02 3.79017E+03 7.23197E+02
 -1        54 3.09039E+02 3.14412E+03 6.80092E+02
 -1        55 2.54053E+02 2.54051E+03 6.29906E+02
 -1        56 2.03855E+02 1.98669E+03 5.72245E+02
 -1        57 1.58480E+02 1.48769E+03 5.07755E+02
 -1        58 1.19534E+02 1.05266E+03 4.36335E+02
 -1        59 8.56127E+01 6.82647E+02 3.59064E+02
 -1        60 6.06781E+01 3.91453E+02 2.75050E+02
 -1        61 3.71279E+01 1.72528E+02 1.85338E+02
 -1        62 3.24807E+01 4.92939E+01 9.16633E+01
 -1        63 3.24807E+01 4.92939E+01-9.16633E+01
 -1        64 3.71279E+01 1.72528E+02-1.85338E+02
 -1        65 6.06781E+01 3.91453E+02-2.75050E+02
 -1        66 8.56127E+01 6.82647E+02-3.59064E+02
 -1        67 1.19534E+02 1.05266E+03-4.36335E+02
 -1        68 1.58480E+02 1.48769E+03-5.07755E+02
 -1        69 2.03855E+02 1.98669E+03-5.72245E+02
 -1        70 2.54053E+02 2.54051E+03-6.29906E+02
 -1        71 3.09039E+02 3.14412E+03-6.80092E+02
 -1        72 3.67991E+02 3.79017E+03-7.23197E+02
 -1        73 4.30141E+02 4.47173E+03-7.58786E+02
 -1        74 4.95319E+02 5.18321E+03-7.87671E+02
 -1        75 5.62682E+02 5.91594E+03-8.08649E+02
 -1        76 6.32363E+02 6.66709E+03-8.24138E+02
 -1        77 7.00241E+02 7.42469E+03-8.31347E+02
 -1        78-2.36865E+01 4.39993E+01-7.58708E+01
 -1        79-4.97568E+00 1.68559E+02-1.53406E+02
 -1        80 1.26955E+01 3.86930E+02-2.27662E+02
 -1        81 4.27044E+01 6.78603E+02-2.97201E+02
 -1        82 7.85583E+01 1.04880E+03-3.61160E+02
 -1        83 1.21665E+02 1.48422E+03-4.20275E+02
 -1        84 1.70395E+02 1.98353E+03-4.73654E+02
 -1        85 2.24644E+02 2.53774E+03-5.21380E+02
 -1        86 2.83489E+02 3.14171E+03-5.62921E+02
 -1        87 3.46372E+02 3.78813E+03-5.98599E+02
 -1        88 4.12752E+02 4.47009E+03-6.28057E+02
 -1        89 4.81742E+02 5.18193E+03-6.51965E+02
 -1        90 5.52550E+02 5.91498E+03-6.69329E+02
 -1        91 6.24502E+02 6.66635E+03-6.82149E+02
 -1        92 6.99516E+02 7.42462E+03-6.88116E+02
 -1        93 0.00000E+00 0.00000E+00 0.00000E+00
 -1        94 0.00000E+00 0.00000E+00 0.00000E+00
 -1        95 0.00000E+00 0.00000E+00 0.00000E+00
 -1        96 0.00000E+00 0.00000E+00 0.00000E+00
 -1        97 0.00000E+00 0.00000E+00 0.00000E+00
 -1        98 7.72012E+02 8.19010E+03 3.80863E+02
 -1        99 7.72033E+02 8.18988E+03 3.59017E+01
 -1       100 7.71991E+02 8.18965E+03 2.30891E-11
 -1       101 7.72033E+02 8.18988E+03-3.59017E+01
 -1       102 7.72012E+02 8.19010E+03-3.80863E+02
 -1       103 2.76579E+00 5.87122E+01 8.12537E+01
 -1       104 2.58258E+01 1.81627E+02 1.78289E+02
 -1       105 1.54866E+01 1.82935E+02 1.71605E+02
 -1       106 4.97151E+00 1.79624E+02 1.62408E+02
 -1       107 3.53861E+01 4.00617E+02 2.51373E+02
 -1       108 7.42640E+01 6.89955E+02 3.44086E+02
 -1       109 6.33899E+01 6.92157E+02 3.28803E+02
 -1       110 5.28085E+01 6.87938E+02 3.13343E+02
 -1       111 9.80127E+01 1.06073E+03 3.99067E+02
 -1       112 1.48658E+02 1.49396E+03 4.86238E+02
 -1       113 1.39297E+02 1.49547E+03 4.64470E+02
 -1       114 1.30261E+02 1.49222E+03 4.42678E+02
 -1       115 1.86314E+02 1.99341E+03 5.23362E+02
 -1       116 2.46197E+02 2.54535E+03 6.03123E+02
 -1       117 2.38683E+02 2.54653E+03 5.76041E+02
 -1       118 2.31491E+02 2.54396E+03 5.49063E+02
 -1       119 2.95661E+02 3.14932E+03 6.21954E+02
 -1       120 3.62192E+02 3.79362E+03 6.92388E+02
 -1       121 3.56659E+02 3.79438E+03 6.61268E+02
 -1       122 3.51388E+02 3.79261E+03 6.30287E+02
 -1       123 4.21049E+02 4.47541E+03 6.93886E+02
 -1       124 4.91667E+02 5.18519E+03 7.53931E+02
 -1       125 4.88128E+02 5.18550E+03 7.19928E+02
 -1       126 4.84855E+02 5.18453E+03 6.86285E+02
 -1       127 5.57446E+02 5.91835E+03 7.39560E+02
 -1       128 6.30121E+02 6.66758E+03 7.88762E+02
 -1       129 6.28137E+02 6.66714E+03 7.53079E+02
 -1       130 6.26294E+02 6.66728E+03 7.17890E+02
 -1       131 6.99935E+02 7.42635E+03 7.60373E+02
 -1       132 5.53446E+00 2.93408E+01-7.65931E+00
 -1       133 6.40198E+00 1.62374E+02 6.81809E+01
 -1       134 1.72442E+01 1.64289E+02-1.61762E+01
 -1       135 2.76510E+01 1.64339E+02-1.00296E+02
 -1       136 3.77638E+01 3.75393E+02-2.36955E+01
 -1       137 5.42429E+01 6.73012E+02 1.32082E+02
 -1       138 6.52457E+01 6.72471E+02-3.09944E+01
 -1       139 7.56430E+01 6.75034E+02-1.94053E+02
 -1       140 9.99891E+01 1.03977E+03-3.76177E+01
 -1       141 1.31535E+02 1.47859E+03 1.87276E+02
 -1       142 1.40969E+02 1.47773E+03-4.37829E+01
 -1       143 1.49955E+02 1.48032E+03-2.74839E+02
 -1       144 1.87907E+02 1.97651E+03-4.93343E+01
 -1       145 2.32516E+02 2.53308E+03 2.32441E+02
 -1       146 2.40046E+02 2.53206E+03-5.43001E+01
 -1       147 2.47224E+02 2.53447E+03-3.41051E+02
 -1       148 2.96868E+02 3.13651E+03-5.86280E+01
 -1       149 3.52170E+02 3.78449E+03 2.67061E+02
 -1       150 3.57674E+02 3.78362E+03-6.23339E+01
 -1       151 3.62940E+02 3.78551E+03-3.91742E+02
 -1       152 4.21871E+02 4.46669E+03-6.54086E+01
 -1       153 4.85261E+02 5.17939E+03 2.90928E+02
 -1       154 4.88806E+02 5.17830E+03-6.78634E+01
 -1       155 4.92232E+02 5.18003E+03-4.26689E+02
 -1       156 5.57889E+02 5.91366E+03-6.97140E+01
 -1       157 6.26892E+02 6.66415E+03 3.04911E+02
 -1       158 6.28473E+02 6.66358E+03-7.09883E+01
 -1       159 6.30107E+02 6.66451E+03-4.46934E+02
 -1       160 7.00038E+02 7.42525E+03-7.16759E+01
 -1       161 2.76579E+00 5.87122E+01-8.12537E+01
 -1       162 2.58258E+01 1.81627E+02-1.78289E+02
 -1       163 1.54866E+01 1.82935E+02-1.71605E+02
 -1       164 4.97151E+00 1.79624E+02-1.62408E+02
 -1       165 3.53861E+01 4.00617E+02-2.51373E+02
 -1       166 7.42640E+01 6.89955E+02-3.44086E+02
 -1       167 6.33899E+01 6.92157E+02-3.28803E+02
 -1       168 5.28085E+01 6.87938E+02-3.13343E+02
 -1       169 9.80127E+01 1.06073E+03-3.99067E+02
 -1       170 1.48658E+02 1.49396E+03-4.86238E+02
 -1       171 1.39297E+02 1.49547E+03-4.64470E+02
 -1       172 1.30261E+02 1.49222E+03-4.42678E+02
 -1       173 1.86314E+02 1.99341E+03-5.23362E+02
 -1       174 2.46197E+02 2.54535E+03-6.03123E+02
 -1       175 2.38683E+02 2.54653E+03-5.76041E+02
 -1       176 2.31491E+02 2.54396E+03-5.49063E+02
 -1       177 2.95661E+02 3.14932E+03-6.21954E+02
 -1       178 3.62192E+02 3.79362E+03-6.92388E+02
 -1       179 3.56659E+02 3.79438E+03-6.61268E+02
 -1       180 3.51388E+02 3.79261E+03-6.30287E+02
 -1       181 4.21049E+02 4.47541E+03-6.93886E+02
 -1       182 4.91667E+02 5.18519E+03-7.53931E+02
 -1       183 4.88128E+02 5.18550E+03-7.19928E+02
 -1       184 4.84855E+02 5.18453E+03-6.86285E+02
 -1       185 5.57446E+02 5.91835E+03-7.39560E+02
 -1       186 6.30121E+02 6.66758E+03-7.88762E+02
 -1       187 6.28137E+02 6.66714E+03-7.53079E+02
 -1       188 6.26294E+02 6.66728E+03-7.17890E+02
 -1       189 6.99935E+02 7.42635E+03-7.60373E+02
 -1       190 5.53446E+00 2.93408E+01 7.65931E+00
 -1       191 6.40198E+00 1.62374E+02-6.81809E+01
 -1       192 1.72442E+01 1.64289E+02 1.61762E+01
 -1       193 2.76510E+01 1.64339E+02 1.00296E+02
 -1       194 3.77638E+01 3.75393E+02 2.36955E+01
 -1       195 5.42429E+01 6.73012E+02-1.32082E+02
 -1       196 6.52457E+01 6.72471E+02 3.09944E+01
 -1       197 7.56430E+01 6.75034E+02 1.94053E+02
 -1       198 9.99891E+01 1.03977E+03 3.76177E+01
 -1       199 1.31535E+02 1.47859E+03-1.87276E+02
 -1       200 1.40969E+02 1.47773E+03 4.37829E+01
 -1       201 1.49955E+02 1.48032E+03 2.74839E+02
 -1       202 1.87907E+02 1.97651E+03 4.93343E+01
 -1       203 2.32516E+02 2.53308E+03-2.32441E+02
 -1       204 2.40046E+02 2.53206E+03 5.43001E+01
 -1       205 2.47224E+02 2.53447E+03 3.41051E+02
 -1       206 2.96868E+02 3.13651E+03 5.86280E+01
 -1       207 3.52170E+02 3.78449E+03-2.67061E+02
 -1       208 3.57674E+02 3.78362E+03 6.23339E+01
 -1       209 3.62940E+02 3.78551E+03 3.91742E+02
 -1       210 4.21871E+02 4.46669E+03 6.54086E+01
 -1       211 4.85261E+02 5.17939E+03-2.90928E+02
 -1       212 4.88806E+02 5.17830E+03 6.78634E+01
 -1       213 4.92232E+02 5.18003E+03 4.26689E+02
 -1       214 5.57889E+02 5.91366E+03 6.97140E+01
 -1       215 6.26892E+02 6.66415E+03-3.04911E+02
 -1       216 6.28473E+02 6.66358E+03 7.09883E+01
 -1       217 6.30107E+02 6.66451E+03 4.46934E+02
 -1       218 7.00038E+02 7.42525E+03 7.16759E+01
 -1       219 3.89964E+00 4.13693E+01-1.31894E-13
 -1       220 1.64013E+01 1.75153E+02 8.51285E+01
 -1       221 1.65106E+01 1.73993E+02 8.02457E+00
 -1       222 1.65652E+01 1.75731E+02-6.12843E-13
 -1       223 1.65106E+01 1.73993E+02-8.02457E+00
 -1       224 1.64013E+01 1.75153E+02-8.51285E+01
 -1       225 3.64997E+01 3.87207E+02-2.09610E-13
 -1       226 6.41336E+01 6.85176E+02 1.63632E+02
 -1       227 6.45875E+01 6.80361E+02 1.54247E+01
 -1       228 6.44007E+01 6.83194E+02-8.02913E-13
 -1       229 6.45875E+01 6.80361E+02-1.54247E+01
 -1       230 6.41336E+01 6.85176E+02-1.63632E+02
 -1       231 9.89808E+01 1.05004E+03-4.68958E-13
 -1       232 1.39953E+02 1.48877E+03 2.31471E+02
 -1       233 1.40338E+02 1.48469E+03 2.18194E+01
 -1       234 1.40159E+02 1.48688E+03 1.63425E-13
 -1       235 1.40338E+02 1.48469E+03-2.18194E+01
 -1       236 1.39953E+02 1.48877E+03-2.31471E+02
 -1       237 1.87104E+02 1.98489E+03 1.60227E-12
 -1       238 2.39202E+02 2.54115E+03 2.87166E+02
 -1       239 2.39539E+02 2.53757E+03 2.70695E+01
 -1       240 2.39377E+02 2.53942E+03 6.03961E-13
 -1       241 2.39539E+02 2.53757E+03-2.70695E+01
 -1       242 2.39202E+02 2.54115E+03-2.87166E+02
 -1       243 2.96259E+02 3.14286E+03 5.89750E-13
 -1       244 3.57043E+02 3.79038E+03 3.29786E+02
 -1       245 3.57297E+02 3.78769E+03 3.10870E+01
 -1       246 3.57176E+02 3.78909E+03 4.35207E-12
 -1       247 3.57297E+02 3.78769E+03-3.10870E+01
 -1       248 3.57043E+02 3.79038E+03-3.29786E+02
 -1       249 4.21457E+02 4.47102E+03 2.84572E-12
 -1       250 4.88389E+02 5.18295E+03 3.59142E+02
 -1       251 4.88566E+02 5.18107E+03 3.38543E+01
 -1       252 4.88483E+02 5.18206E+03 1.03597E-11
 -1       253 4.88566E+02 5.18107E+03-3.38543E+01
 -1       254 4.88389E+02 5.18295E+03-3.59142E+02
 -1       255 5.57652E+02 5.91584E+03 1.13971E-11
 -1       256 6.28232E+02 6.66571E+03 3.75815E+02
 -1       257 6.28337E+02 6.66459E+03 3.54259E+01
 -1       258 6.28282E+02 6.66512E+03 1.41505E-11
 -1       259 6.28337E+02 6.66459E+03-3.54259E+01
 -1       260 6.28232E+02 6.66571E+03-3.75815E+02
 -1       261 7.00030E+02 7.42626E+03 1.93516E-11
 -3
    1PSTEP                         2           1           2          
    1PGM                1.000000E+00                                  
    1PGK                2.538584E+09                                  
    1PHID                         -1                                  
    1PSUBC                         0                                  
    1PMODE                         1                                  
  100CL  102 8.01892E+03         261                     2    2MODAL      1
 -4  STRESS      6    1
 -5  SXX         1    4    1    1
 -5  SYY         1    4    2    2
 -5  SZZ         1    4    3    3
 -5  SXY         1    4    1    2
 -5  SYZ         1    4    2    3
 -5  SZX         1    4    3    1
 -1         1 1.21710E+07 1.28303E+07 4.53763E+07-1.37801E+06 2.04854E+06 7.11895E+06
 -1         2 9.94873E+06 1.07452E+07 3.75585E+07 1.14060E+06 7.31113E+05-6.85693E+06
 -1         3-1.21710E+07-1.28303E+07-4.53763E+07 1.37801E+06 2.04854E+06 7.11895E+06
 -1         4-9.94873E+06-1.07452E+07-3.75585E+07-1.14060E+06 7.31113E+05-6.85693E+06
 -1         5 2.46682E+05-2.23816E+06 2.11711E+05-1.15410E+06 7.26913E+05-1.96831E+05
 -1         6 6.76846E+05-2.32522E+06 1.75236E+05 9.55267E+05 7.77388E+05 3.38633E+05
 -1         7-2.46682E+05 2.23816E+06-2.11711E+05 1.15410E+06 7.26913E+05-1.96831E+05
 -1         8-6.76846E+05 2.32522E+06-1.75236E+05-9.55267E+05 7.77388E+05 3.38633E+05
 -1         9 1.06498E+07 1.15345E+07 4.16015E+07-4.30123E+05 3.35772E+06 3.18769E+06
 -1        10 9.63583E+06 1.04580E+07 3.80504E+07-1.14259E+05 4.66640E+06-3.48703E+05
 -1        11 1.00459E+07 1.07112E+07 3.79163E+07 1.97157E+05 2.69851E+06-3.40538E+06
 -1        12 3.31832E+06 2.22747E+06 1.57994E+07 1.20614E+06-1.46544E+06-3.21118E+06
 -1        13-9.85819E+05-9.08314E+05-3.58679E+06 1.21211E+06-3.69922E+06 4.39874E+05
 -1        14-5.41530E+06-4.17834E+06-2.32951E+07 1.26527E+06-8.43950E+05 3.78206E+06
 -1        15-1.06498E+07-1.15345E+07-4.16015E+07 4.30123E+05 3.35772E+06 3.18769E+06
 -1        16-9.63583E+06-1.04580E+07-3.80504E+07 1.14259E+05 4.66640E+06-3.48703E+05
 -1        17-1.00459E+07-1.07112E+07-3.79163E+07-1.97157E+05 2.69851E+06-3.40538E+06
 -1        18-3.31832E+06-2.22747E+06-1.57994E+07-1.20614E+06-1.46544E+06-3.21118E+06
 -1        19 9.85819E+05 9.08314E+05 3.58679E+06-1.21211E+06-3.69922E+06 4.39874E+05
 -1        20 5.41530E+06 4.17834E+06 2.32951E+07-1.26527E+06-8.43950E+05 3.78206E+06
 -1        21 4.51738E+05-1.10637E+06 4.83613E+04 2.11833E+04 3.50075E+05-1.69915E+05
 -1        22 6.58604E+05 7.52846E+04-8.24314E+04-3.96400E+04-4.88372E+04 1.30629E+05
 -1        23 6.68631E+05-1.10004E+06 6.26810E+04-1.60242E+05 3.53238E+05 3.71445E+05
 -1        24 7.03829E+04-1.20326E+06-8.11887E+04 7.46154E+05 1.09448E+06 4.99250E+04
 -1        25-7.09664E+03-6.20828E+04 7.77033E+03 4.20521E+05 1.38578E+06-4.60360E+03
 -1        26 1.37602E+05 1.09765E+06 7.07213E+04 7.29052E+05 1.04345E+06 1.63722E+04
 -1        27-4.51738E+05 1.10637E+06-4.83613E+04-2.11833E+04 3.50075E+05-1.69915E+05
 -1        28-6.58604E+05-7.52846E+04 8.24314E+04 3.96400E+04-4.88372E+04 1.30629E+05
 -1        29-6.68631E+05 1.10004E+06-6.26810E+04 1.60242E+05 3.53238E+05 3.71445E+05
 -1        30-7.03829E+04 1.20326E+06 8.11887E+04-7.46154E+05 1.09448E+06 4.99250E+04
 -1        31 7.09664E+03 6.20828E+04-7.77033E+03-4.20521E+05 1.38578E+06-4.60360E+03
 -1        32-1.37602E+05-1.09765E+06-7.07213E+04-7.29052E+05 1.04345E+06 1.63722E+04
 -1        33 2.40101E+06 3.03409E+06 3.37035E+07 6.09729E+05-5.08461E+04-1.42646E+06
 -1        34-2.19218E+06-2.57381E+06 3.10046E+07-3.32457E+05 3.43182E+05 1.57448E+06
 -1        35 4.30868E+04-4.69661E+05 2.99823E+07-2.26802E+05 3.69788E+05-1.09318E+05
 -1        36-1.34521E+05 2.67244E+05 2.80229E+07 1.82314E+05-4.76113E+04 2.51292E+05
 -1        37 9.80852E+04 2.49195E+05 2.58967E+07 4.19349E+04 2.95511E+05 3.67299E+04
 -1        38-9.01722E+04-2.15355E+05 2.35657E+07-2.68607E+04 1.92575E+05 1.32641E+05
 -1        39-3.81611E+03-1.78286E+04 2.11681E+07-1.47030E+04 3.10670E+05 8.83357E+04
 -1        40 1.67289E+03 1.12468E+04 1.87327E+07 1.47417E+04 2.23936E+05 1.01866E+05
 -1        41 3.20200E+02 1.90358E+04 1.61876E+07-2.43698E+02 3.01824E+05 8.90185E+04
 -1        42-5.81287E+03 1.97412E+04 1.36472E+07-1.88613E+04 2.58131E+05 1.01958E+05
 -1        43 9.94759E+03-4.35325E+04 1.11391E+07 1.97556E+04 2.94356E+05 9.84124E+04
 -1        44 3.86045E+04-6.39025E+04 8.61461E+06 3.86574E+04 1.48905E+05 1.00753E+05
 -1        45-5.91543E+04 8.49344E+04 6.31258E+06-5.83476E+04 3.62151E+05 6.23980E+04
 -1        46-1.65210E+05 5.54088E+05 3.94861E+06-2.41043E+05 2.23299E+05 6.28331E+04
 -1        47 2.75695E+05-6.47009E+05 2.01335E+06 2.93100E+05 2.13214E+05 2.27561E+05
 -1        48 1.57565E+05-6.06168E+05 2.43242E+06-3.54109E+05 1.73751E+05-1.91084E+05
 -1        49-6.27745E+04 5.32597E+05 4.77052E+06 2.91216E+05 2.15351E+05-2.14841E+04
 -1        50-4.40588E+04 7.52051E+04 7.62654E+06 7.04926E+04 3.56776E+05 5.37109E+03
 -1        51 2.71413E+04-5.77050E+04 1.04077E+07-4.67039E+04 1.32410E+05-7.42350E+04
 -1        52 1.84526E+03-4.24209E+04 1.34578E+07-2.38677E+04 2.80915E+05-4.41849E+04
 -1        53-2.16196E+03 1.89894E+04 1.64878E+07 2.27873E+04 2.43365E+05-5.46848E+04
 -1        54 3.94691E+03 1.94381E+04 1.95570E+07 2.94424E+02 2.90303E+05-3.32021E+04
 -1        55 3.84225E+03 1.17667E+04 2.26319E+07-1.78101E+04 2.08574E+05-6.10954E+04
 -1        56-7.27587E+03-1.88742E+04 2.55742E+07 1.77634E+04 2.99437E+05-3.08245E+04
 -1        57-1.32754E+05-2.36369E+05 2.84709E+07 3.24518E+04 1.70798E+05-9.83882E+04
 -1        58 1.47245E+05 2.72321E+05 3.12871E+07-5.06637E+04 2.93823E+05 1.88230E+04
 -1        59-8.60982E+04 2.46448E+05 3.38558E+07-2.20263E+05-9.62654E+04-2.64854E+05
 -1        60-4.54789E+04-4.69887E+05 3.62231E+07 2.74011E+05 3.97213E+05 1.81618E+05
 -1        61-2.72107E+06-3.03696E+06 3.74582E+07 4.01658E+05 4.98409E+04-1.53743E+06
 -1        62 3.02120E+06 3.54521E+06 4.07189E+07-7.36644E+05 2.19582E+05 1.44237E+06
 -1        63-3.02120E+06-3.54521E+06-4.07189E+07 7.36644E+05 2.19582E+05 1.44237E+06
 -1        64 2.72107E+06 3.03696E+06-3.74582E+07-4.01658E+05 4.98409E+04-1.53743E+06
 -1        65 4.54789E+04 4.69887E+05-3.62231E+07-2.74011E+05 3.97213E+05 1.81618E+05
 -1        66 8.60982E+04-2.46448E+05-3.38558E+07 2.20263E+05-9.62654E+04-2.64854E+05
 -1        67-1.47245E+05-2.72321E+05-3.12871E+07 5.06637E+04 2.93823E+05 1.88230E+04
 -1        68 1.32754E+05 2.36369E+05-2.84709E+07-3.24518E+04 1.70798E+05-9.83882E+04
 -1        69 7.27587E+03 1.88742E+04-2.55742E+07-1.77634E+04 2.99437E+05-3.08245E+04
 -1        70-3.84225E+03-1.17667E+04-2.26319E+07 1.78101E+04 2.08574E+05-6.10954E+04
 -1        71-3.94691E+03-1.94381E+04-1.95570E+07-2.94424E+02 2.90303E+05-3.32021E+04
 -1        72 2.16196E+03-1.89894E+04-1.64878E+07-2.27873E+04 2.43365E+05-5.46848E+04
 -1        73-1.84526E+03 4.24209E+04-1.34578E+07 2.38677E+04 2.80915E+05-4.41849E+04
 -1        74-2.71413E+04 5.77050E+04-1.04077E+07 4.67039E+04 1.32410E+05-7.42350E+04
 -1        75 4.40588E+04-7.52051E+04-7.62654E+06-7.04926E+04 3.56776E+05 5.37109E+03
 -1        76 6.27745E+04-5.32597E+05-4.77052E+06-2.91216E+05 2.15351E+05-2.14841E+04
 -1        77-1.57565E+05 6.06168E+05-2.43242E+06 3.54109E+05 1.73751E+05-1.91084E+05
 -1        78-2.40101E+06-3.03409E+06-3.37035E+07-6.09729E+05-5.08461E+04-1.42646E+06
 -1        79 2.19218E+06 2.57381E+06-3.10046E+07 3.32457E+05 3.43182E+05 1.57448E+06
 -1        80-4.30868E+04 4.69661E+05-2.99823E+07 2.26802E+05 3.69788E+05-1.09318E+05
 -1        81 1.34521E+05-2.67244E+05-2.80229E+07-1.82314E+05-4.76113E+04 2.51292E+05
 -1        82-9.80852E+04-2.49195E+05-2.58967E+07-4.19349E+04 2.95511E+05 3.67299E+04
 -1        83 9.01722E+04 2.15355E+05-2.35657E+07 2.68607E+04 1.92575E+05 1.32641E+05
 -1        84 3.81611E+03 1.78286E+04-2.11681E+07 1.47030E+04 3.10670E+05 8.83357E+04
 -1        85-1.67289E+03-1.12468E+04-1.87327E+07-1.47417E+04 2.23936E+05 1.01866E+05
 -1        86-3.20200E+02-1.90358E+04-1.61876E+07 2.43698E+02 3.01824E+05 8.90185E+04
 -1        87 5.81287E+03-1.97412E+04-1.36472E+07 1.88613E+04 2.58131E+05 1.01958E+05
 -1        88-9.94759E+03 4.35325E+04-1.11391E+07-1.97556E+04 2.94356E+05 9.84124E+04
 -1        89-3.86045E+04 6.39025E+04-8.61461E+06-3.86574E+04 1.48905E+05 1.00753E+05
 -1        90 5.91543E+04-8.49344E+04-6.31258E+06 5.83476E+04 3.62151E+05 6.23980E+04
 -1        91 1.65210E+05-5.54088E+05-3.94861E+06 2.41043E+05 2.23299E+05 6.28331E+04
 -1        92-2.75695E+05 6.47009E+05-2.01335E+06-2.93100E+05 2.13214E+05 2.27561E+05
 -1        93 3.68102E+06 2.61147E+06 1.78528E+07-2.51170E+04 2.15429E+06-1.91216E+05
 -1        94 2.46168E+05 3.46989E+05 1.68288E+06-2.66453E+05-2.02852E+06 2.03072E+05
 -1        95-3.79514E-08-7.14790E-08-7.21775E-09 3.26254E-08-3.57819E+05-3.37295E+04
 -1        96-2.46168E+05-3.46989E+05-1.68288E+06 2.66453E+05-2.02852E+06 2.03072E+05
 -1        97-3.68102E+06-2.61147E+06-1.78528E+07 2.51170E+04 2.15429E+06-1.91216E+05
 -1        98 1.10020E+05 6.84907E+04-1.00762E+05-4.00041E+04 2.67888E+05 9.28686E+04
 -1        99 6.45622E+03 1.03709E+04-9.49825E+03-4.24382E+05 9.85195E+05 2.52523E+04
 -1       100-2.43587E-06-9.19980E-06-5.33252E-06 4.13139E-06 5.84614E+05 5.51082E+04
 -1       101-6.45622E+03-1.03709E+04 9.49825E+03 4.24382E+05 9.85195E+05 2.52523E+04
 -1       102-1.10020E+05-6.84907E+04 1.00762E+05 4.00041E+04 2.67888E+05 9.28686E+04
 -1       103 3.08415E+06 3.39778E+06 3.77933E+07-6.92972E+04 1.21733E+06-1.19376E+04
 -1       104-2.09959E+06-2.74773E+06 3.65426E+07 1.00079E+05-2.78397E+05-6.13151E+05
 -1       105-1.63952E+06-2.52263E+06 3.55661E+07 2.27052E+04-6.04269E+05 1.57496E+05
 -1       106-1.99655E+06-2.58028E+06 3.32549E+07-4.27734E+04-1.29361E+05 7.89171E+05
 -1       107 1.43183E+04-6.53725E+05 3.27890E+07 2.08705E+04 2.42434E+05 1.08899E+05
 -1       108-3.42263E+04 3.34801E+05 3.26101E+07-4.04642E+04-7.28331E+04-1.06773E+05
 -1       109 8.28144E+04 4.51393E+05 3.13957E+07-1.88601E+04-5.14901E+04 1.65117E+05
 -1       110 6.73115E+03 3.73438E+05 2.97250E+07 2.62983E+03-5.05953E+04 2.65109E+05
 -1       111 1.07847E+05 2.43894E+05 2.85323E+07-4.04053E+03 1.98556E+05 1.45827E+05
 -1       112-9.19866E+04-2.13624E+05 2.72903E+07-2.55319E+03 1.52600E+05 3.08945E+03
 -1       113-5.60981E+04-1.92620E+05 2.61083E+07 2.54696E+03 1.32440E+05 1.64416E+05
 -1       114-7.55744E+04-2.04858E+05 2.48363E+07 7.89568E+03 1.61527E+05 1.78454E+05
 -1       115-4.43747E+03-3.20769E+04 2.33635E+07 1.21132E+03 1.98180E+05 1.60660E+05
 -1       116 4.54612E+03 1.84197E+04 2.16664E+07-2.19682E+03 1.84089E+05 2.09373E+04
 -1       117 1.08022E+04 2.77257E+04 2.07041E+07-1.18380E+03 1.57464E+05 1.74198E+05
 -1       118 9.01368E+03 2.08127E+04 1.97200E+07-5.21216E+02 1.89630E+05 1.73645E+05
 -1       119 3.49195E+03 1.42821E+04 1.78709E+07-1.21247E+02 1.90996E+05 1.68717E+05
 -1       120-4.79412E+03-1.04650E+02 1.57738E+07-5.40095E+02 2.13613E+05 2.37292E+04
 -1       121-8.19629E+03-2.00632E+04 1.50594E+07 6.39965E+02 1.81520E+05 1.73773E+05
 -1       122-7.38959E+03-5.93269E+02 1.43531E+07 3.14305E+03 2.18655E+05 1.73680E+05
 -1       123 7.09648E+03 6.72990E+03 1.23042E+07-7.49886E+02 1.77754E+05 1.67438E+05
 -1       124 2.70638E+04-1.52822E+04 9.96146E+06 3.49665E+04 1.55478E+05 1.82444E+04
 -1       125 1.70358E+04 2.46803E+04 9.50892E+06-1.54723E+03 1.76870E+05 1.72214E+05
 -1       126 2.28449E+04-2.08413E+04 9.05864E+06-4.05370E+04 1.62050E+05 1.67229E+05
 -1       127-3.96346E+04-5.63118E+04 6.92342E+06 2.99362E+03 1.96726E+05 1.47913E+05
 -1       128-8.15550E+04 2.59973E+05 4.58633E+06-2.05495E+04 1.87928E+05 4.72890E+04
 -1       129-9.28001E+04-1.78721E+04 4.40867E+06 7.76161E+03 1.56917E+05 1.46564E+05
 -1       130-1.25237E+05 2.65497E+05 4.18190E+06 5.33976E+04 1.88315E+05 1.19949E+05
 -1       131 2.88424E+05 9.67163E+04 2.15837E+06-1.57534E+04 3.62601E+04 1.57223E+05
 -1       132-3.20288E+05-2.90725E+05-3.56256E+06 7.35138E+05-1.26640E+05 1.14750E+05
 -1       133-6.37074E+05-3.53533E+05 1.41495E+07-2.97230E+05 9.99745E+05 7.71307E+05
 -1       134 2.37793E+05 1.54548E+05-3.35261E+06-2.40868E+05 1.67079E+06-5.69609E+04
 -1       135 1.13932E+06 7.39653E+05-2.07289E+07-3.10696E+05 8.67556E+05-8.09744E+05
 -1       136 6.16228E+04-1.34970E+03-3.09083E+06-2.21405E+05 1.15525E+06 2.28528E+04
 -1       137-2.38322E+05-2.15952E+05 1.23652E+07 1.98652E+05 8.57379E+05 1.12137E+05
 -1       138-4.25502E+04-7.80643E+03-2.95949E+06 2.00077E+05 1.75164E+06-4.85367E+03
 -1       139 1.71560E+05 2.18544E+05-1.82412E+07 2.02714E+05 8.22323E+05-1.23772E+05
 -1       140-2.29905E+04-1.01661E+04-2.68957E+06 4.28639E+04 1.54700E+06 1.87168E+04
 -1       141-2.67713E+04-7.91568E+04 1.05599E+07-2.88303E+04 9.71213E+05 6.21563E+04
 -1       142 1.81572E+04 5.28805E+03-2.46107E+06-2.70194E+04 1.74421E+06 1.24844E+04
 -1       143 6.62192E+04 9.49518E+04-1.54736E+07-2.78453E+04 9.54683E+05-3.25454E+04
 -1       144 3.02370E+03 4.18295E+02-2.20234E+06-1.28502E+04 1.70436E+06 1.86813E+04
 -1       145-1.45423E+04-2.43361E+04 8.37387E+06 1.43382E+04 1.03931E+06 4.70038E+04
 -1       146-2.61354E+03-1.01826E+03-1.95166E+06 1.25584E+04 1.84797E+06 1.48432E+04
 -1       147 1.08441E+04 2.30579E+04-1.22751E+07 1.44961E+04 1.02492E+06-1.17756E+04
 -1       148-1.34629E+03-3.29166E+02-1.68459E+06 1.28624E+03 1.78984E+06 1.80041E+04
 -1       149 2.62465E+03 1.43412E+04 6.11556E+06-1.39803E+04 1.05417E+06 4.71191E+04
 -1       150 1.89124E+03 7.72617E+02-1.41956E+06-6.78906E+03 1.84346E+06 1.71108E+04
 -1       151-2.55886E+03-1.31927E+04-8.95545E+06-1.36331E+04 1.04004E+06-6.37172E+03
 -1       152-6.34389E+02-6.68944E+02-1.15985E+06 7.95515E+03 1.77627E+06 1.67558E+04
 -1       153 3.11891E+04 2.00257E+04 3.89234E+06 3.31058E+04 9.90816E+05 4.98258E+04
 -1       154-2.32647E+03-1.60586E+03-8.96351E+05 1.64137E+04 1.82693E+06 1.66725E+04
 -1       155-2.77840E+04-2.47303E+04-5.68526E+06 2.59886E+04 9.76772E+05-1.98943E+04
 -1       156 5.30819E+03 3.73612E+03-6.52630E+05-3.17578E+04 1.56913E+06 1.85442E+04
 -1       157-5.40647E+04 2.41448E+05 1.73191E+06-1.77720E+05 8.90498E+05 1.97877E+04
 -1       158 1.68470E+03 8.74772E+03-4.15579E+05-8.23389E+04 1.55482E+06 1.47917E+04
 -1       159 4.53173E+03-2.21955E+05-2.55844E+06-1.70749E+05 8.83648E+05 1.56784E+04
 -1       160-9.11688E+03-2.71881E+04-2.03457E+05 1.67119E+05 1.66790E+06 3.41803E+03
 -1       161-3.08415E+06-3.39778E+06-3.77933E+07 6.92972E+04 1.21733E+06-1.19376E+04
 -1       162 2.09959E+06 2.74773E+06-3.65426E+07-1.00079E+05-2.78397E+05-6.13151E+05
 -1       163 1.63952E+06 2.52263E+06-3.55661E+07-2.27052E+04-6.04269E+05 1.57496E+05
 -1       164 1.99655E+06 2.58028E+06-3.32549E+07 4.27734E+04-1.29361E+05 7.89171E+05
 -1       165-1.43183E+04 6.53725E+05-3.27890E+07-2.08705E+04 2.42434E+05 1.08899E+05
 -1       166 3.42263E+04-3.34801E+05-3.26101E+07 4.04642E+04-7.28331E+04-1.06773E+05
 -1       167-8.28144E+04-4.51393E+05-3.13957E+07 1.88601E+04-5.14901E+04 1.65117E+05
 -1       168-6.73115E+03-3.73438E+05-2.97250E+07-2.62983E+03-5.05953E+04 2.65109E+05
 -1       169-1.07847E+05-2.43894E+05-2.85323E+07 4.04053E+03 1.98556E+05 1.45827E+05
 -1       170 9.19866E+04 2.13624E+05-2.72903E+07 2.55319E+03 1.52600E+05 3.08945E+03
 -1       171 5.60981E+04 1.92620E+05-2.61083E+07-2.54696E+03 1.32440E+05 1.64416E+05
 -1       172 7.55744E+04 2.04858E+05-2.48363E+07-7.89568E+03 1.61527E+05 1.78454E+05
 -1       173 4.43747E+03 3.20769E+04-2.33635E+07-1.21132E+03 1.98180E+05 1.60660E+05
 -1       174-4.54612E+03-1.84197E+04-2.16664E+07 2.19682E+03 1.84089E+05 2.09373E+04
 -1       175-1.08022E+04-2.77257E+04-2.07041E+07 1.18380E+03 1.57464E+05 1.74198E+05
 -1       176-9.01368E+03-2.08127E+04-1.97200E+07 5.21216E+02 1.89630E+05 1.73645E+05
 -1       177-3.49195E+03-1.42821E+04-1.78709E+07 1.21247E+02 1.90996E+05 1.68717E+05
 -1       178 4.79412E+03 1.04650E+02-1.57738E+07 5.40095E+02 2.13613E+05 2.37292E+04
 -1       179 8.19629E+03 2.00632E+04-1.50594E+07-6.39965E+02 1.81520E+05 1.73773E+05
 -1       180 7.38959E+03 5.93269E+02-1.43531E+07-3.14305E+03 2.18655E+05 1.73680E+05
 -1       181-7.09648E+03-6.72990E+03-1.23042E+07 7.49886E+02 1.77754E+05 1.67438E+05
 -1       182-2.70638E+04 1.52822E+04-9.96146E+06-3.49665E+04 1.55478E+05 1.82444E+04
 -1       183-1.70358E+04-2.46803E+04-9.50892E+06 1.54723E+03 1.76870E+05 1.72214E+05
 -1       184-2.28449E+04 2.08413E+04-9.05864E+06 4.05370E+04 1.62050E+05 1.67229E+05
 -1       185 3.96346E+04 5.63118E+04-6.92342E+06-2.99362E+03 1.96726E+05 1.47913E+05
 -1       186 8.15550E+04-2.59973E+05-4.58633E+06 2.05495E+04 1.87928E+05 4.72890E+04
 -1       187 9.28001E+04 1.78721E+04-4.40867E+06-7.76161E+03 1.56917E+05 1.46564E+05
 -1       188 1.25237E+05-2.65497E+05-4.18190E+06-5.33976E+04 1.88315E+05 1.19949E+05
 -1       189-2.88424E+05-9.67163E+04-2.15837E+06 1.57534E+04 3.62601E+04 1.57223E+05
 -1       190 3.20288E+05 2.90725E+05 3.56256E+06-7.35138E+05-1.26640E+05 1.14750E+05
 -1       191 6.37074E+05 3.53533E+05-1.41495E+07 2.97230E+05 9.99745E+05 7.71307E+05
 -1       192-2.37793E+05-1.54548E+05 3.35261E+06 2.40868E+05 1.67079E+06-5.69609E+04
 -1       193-1.13932E+06-7.39653E+05 2.07289E+07 3.10696E+05 8.67556E+05-8.09744E+05
 -1       194-6.16228E+04 1.34970E+03 3.09083E+06 2.21405E+05 1.15525E+06 2.28528E+04
 -1       195 2.38322E+05 2.15952E+05-1.23652E+07-1.98652E+05 8.57379E+05 1.12137E+05
 -1       196 4.25502E+04 7.80643E+03 2.95949E+06-2.00077E+05 1.75164E+06-4.85367E+03
 -1       197-1.71560E+05-2.18544E+05 1.82412E+07-2.02714E+05 8.22323E+05-1.23772E+05
 -1       198 2.29905E+04 1.01661E+04 2.68957E+06-4.28639E+04 1.54700E+06 1.87168E+04
 -1       199 2.67713E+04 7.91568E+04-1.05599E+07 2.88303E+04 9.71213E+05 6.21563E+04
 -1       200-1.81572E+04-5.28805E+03 2.46107E+06 2.70194E+04 1.74421E+06 1.24844E+04
 -1       201-6.62192E+04-9.49518E+04 1.54736E+07 2.78453E+04 9.54683E+05-3.25454E+04
 -1       202-3.02370E+03-4.18295E+02 2.20234E+06 1.28502E+04 1.70436E+06 1.86813E+04
 -1       203 1.45423E+04 2.43361E+04-8.37387E+06-1.43382E+04 1.03931E+06 4.70038E+04
 -1       204 2.61354E+03 1.01826E+03 1.95166E+06-1.25584E+04 1.84797E+06 1.48432E+04
 -1       205-1.08441E+04-2.30579E+04 1.22751E+07-1.44961E+04 1.02492E+06-1.17756E+04
 -1       206 1.34629E+03 3.29166E+02 1.68459E+06-1.28624E+03 1.78984E+06 1.80041E+04
 -1       207-2.62465E+03-1.43412E+04-6.11556E+06 1.39803E+04 1.05417E+06 4.71191E+04
 -1       208-1.89124E+03-7.72617E+02 1.41956E+06 6.78906E+03 1.84346E+06 1.71108E+04
 -1       209 2.55886E+03 1.31927E+04 8.95545E+06 1.36331E+04 1.04004E+06-6.37172E+03
 -1       210 6.34389E+02 6.68944E+02 1.15985E+06-7.95515E+03 1.77627E+06 1.67558E+04
 -1       211-3.11891E+04-2.00257E+04-3.89234E+06-3.31058E+04 9.90816E+05 4.98258E+04
 -1       212 2.32647E+03 1.60586E+03 8.96351E+05-1.64137E+04 1.82693E+06 1.66725E+04
 -1       213 2.77840E+04 2.47303E+04 5.68526E+06-2.59886E+04 9.76772E+05-1.98943E+04
 -1       214-5.30819E+03-3.73612E+03 6.52630E+05 3.17578E+04 1.56913E+06 1.85442E+04
 -1       215 5.40647E+04-2.41448E+05-1.73191E+06 1.77720E+05 8.90498E+05 1.97877E+04
 -1       216-1.68470E+03-8.74772E+03 4.15579E+05 8.23389E+04 1.55482E+06 1.47917E+04
 -1       217-4.53173E+03 2.21955E+05 2.55844E+06 1.70749E+05 8.83648E+05 1.56784E+04
 -1       218 9.11688E+03 2.71881E+04 2.03457E+05-1.67119E+05 1.66790E+06 3.41803E+03
 -1       219-1.07684E-08 4.65661E-08-1.47615E-07 2.22499E-08 1.07572E+06 1.01402E+05
 -1       220-4.62672E+05-3.71749E+05 1.81296E+07-5.07252E+03 3.29741E+05 1.38311E+05
 -1       221-3.50426E+04-4.36134E+04 1.70897E+06-5.38117E+04 1.46727E+06 3.10827E+04
 -1       222 5.82950E-08 1.61002E-07 7.49133E-08 1.17434E-08 1.26375E+06 1.19126E+05
 -1       223 3.50426E+04 4.36134E+04-1.70897E+06 5.38117E+04 1.46727E+06 3.10827E+04
 -1       224 4.62672E+05 3.71749E+05-1.81296E+07 5.07252E+03 3.29741E+05 1.38311E+05
 -1       225-4.16185E-08 1.52097E-07-1.12923E-07-5.72109E-08 1.02338E+06 9.64676E+04
 -1       226-1.24874E+05-1.69512E+05 1.55260E+07-1.95078E+03 6.91085E+05 1.50130E+05
 -1       227-1.59789E+04-1.17711E+04 1.46354E+06-2.06948E+04 1.59265E+06 6.51446E+04
 -1       228-6.53399E-08 9.58535E-08-4.00163E-07-1.12512E-07 1.43366E+06 1.35143E+05
 -1       229 1.59789E+04 1.17711E+04-1.46354E+06 2.06948E+04 1.59265E+06 6.51446E+04
 -1       230 1.24874E+05 1.69512E+05-1.55260E+07 1.95078E+03 6.91085E+05 1.50130E+05
 -1       231-5.97320E-07 6.31546E-07-1.38112E-07 1.35235E-07 1.21859E+06 1.14869E+05
 -1       232-1.23668E+04-5.51227E+04 1.30679E+07-6.44694E+02 7.63760E+05 1.47961E+05
 -1       233-5.19609E+03-1.16575E+03 1.23184E+06-6.83923E+03 1.56965E+06 7.19952E+04
 -1       234-6.47782E-07 1.26732E-06 4.30999E-07 2.73665E-07 1.39508E+06 1.31506E+05
 -1       235 5.19609E+03 1.16575E+03-1.23184E+06 6.83923E+03 1.56965E+06 7.19952E+04
 -1       236 1.23668E+04 5.51227E+04-1.30679E+07 6.44694E+02 7.63760E+05 1.47961E+05
 -1       237-1.61689E-06 1.94163E-07-9.29547E-07 4.68935E-09 1.36212E+06 1.28399E+05
 -1       238-9.54252E+03-1.80877E+04 1.03350E+07-1.52353E+02 8.10435E+05 1.56072E+05
 -1       239-1.70502E+03-8.99518E+02 9.74221E+05-1.61624E+03 1.65569E+06 7.63950E+04
 -1       240-2.73315E-06 5.67669E-07-2.06347E-06-5.41995E-07 1.46341E+06 1.37947E+05
 -1       241 1.70502E+03 8.99518E+02-9.74221E+05 1.61624E+03 1.65569E+06 7.63950E+04
 -1       242 9.54252E+03 1.80877E+04-1.03350E+07 1.52353E+02 8.10435E+05 1.56072E+05
 -1       243-1.76630E-06-4.47221E-07-3.98031E-07-1.98589E-07 1.43168E+06 1.34956E+05
 -1       244 1.32424E+02-7.81217E+03 7.53208E+06 3.32204E+02 8.18448E+05 1.55481E+05
 -1       245-7.36407E+02 1.24829E+01 7.10006E+05 3.52418E+03 1.64942E+06 7.71503E+04
 -1       246-1.00517E-06-7.52549E-07-1.46401E-06 2.73945E-07 1.45538E+06 1.37190E+05
 -1       247 7.36407E+02-1.24829E+01-7.10006E+05-3.52418E+03 1.64942E+06 7.71503E+04
 -1       248-1.32424E+02 7.81217E+03-7.53208E+06-3.32204E+02 8.18448E+05 1.55481E+05
 -1       249-2.51947E-07-1.94240E-06-5.79079E-07-1.03014E-07 1.41487E+06 1.33372E+05
 -1       250 1.65828E+03 2.46202E+04 4.76187E+06-1.33918E+03 8.06237E+05 1.53770E+05
 -1       251 2.32081E+03 1.56316E+02 4.48873E+05-1.42067E+04 1.63127E+06 7.59993E+04
 -1       252 4.60204E-08-3.93817E-06 4.83193E-07 8.17531E-08 1.43560E+06 1.35326E+05
 -1       253-2.32081E+03-1.56316E+02-4.48873E+05 1.42067E+04 1.63127E+06 7.59993E+04
 -1       254-1.65828E+03-2.46202E+04-4.76187E+06 1.33918E+03 8.06237E+05 1.53770E+05
 -1       255 1.52981E-06-4.54009E-06-7.16533E-07 6.93898E-07 1.27655E+06 1.20333E+05
 -1       256 4.91061E+03-2.14542E+04 2.22066E+06 7.94904E+03 7.23544E+05 1.34090E+05
 -1       257-2.02236E+03 4.62895E+02 2.09329E+05 8.43273E+04 1.42250E+06 6.82043E+04
 -1       258 2.13266E-06-6.51503E-06-1.27313E-06 9.08303E-07 1.29017E+06 1.21617E+05
 -1       259 2.02236E+03-4.62895E+02-2.09329E+05-8.43273E+04 1.42250E+06 6.82043E+04
 -1       260-4.91061E+03 2.14542E+04-2.22066E+06-7.94904E+03 7.23544E+05 1.34090E+05
 -1       261-6.96331E-07-7.84398E-06-3.85976E-06 2.47964E-06 1.04755E+06 9.87462E+04
 -3
    1PSTEP                         3           1           2          
    1PGM                1.000000E+00                                  
    1PGK                2.538584E+09                                  
    1PHID                         -1                                  
    1PSUBC                         0                                  
    1PMODE                         2                                  
  100CL  103 8.01892E+03         261                     2    3MODAL      1
 -4  DISP        4    1
 -5  D1          1    2    1    0
 -5  D2          1    2    2    0
 -5  D3          1    2    3    0
 -5  ALL         1    2    0    0    1ALL
 -1         1 0.00000E+00 0.00000E+00 0.00000E+00
 -1         2 0.00000E+00 0.00000E+00 0.00000E+00
 -1         3 0.00000E+00 0.00000E+00 0.00000E+00
 -1         4 0.00000E+00 0.00000E+00 0.00000E+00
 -1         5 8.19161E+03-7.75162E+02 6.94738E+02
 -1         6 8.19105E+03-7.69136E+02-8.39348E+02
 -1         7 8.19161E+03-7.75162E+02-6.94738E+02
 -1         8 8.19105E+03-7.69136E+02 8.39348E+02
 -1         9 0.00000E+00 0.00000E+00 0.00000E+00
 -1        10 0.00000E+00 0.00000E+00 0.00000E+00
 -1        11 0.00000E+00 0.00000E+00 0.00000E+00
 -1        12 0.00000E+00 0.00000E+00 0.00000E+00
 -1        13 0.00000E+00 0.00000E+00 0.00000E+00
 -1        14 0.00000E+00 0.00000E+00 0.00000E+00
 -1        15 0.00000E+00 0.00000E+00 0.00000E+00
 -1        16 0.00000E+00 0.00000E+00 0.00000E+00
 -1        17 0.00000E+00 0.00000E+00 0.00000E+00
 -1        18 0.00000E+00 0.00000E+00 0.00000E+00
 -1        19 0.00000E+00 0.00000E+00 0.00000E+00
 -1        20 0.00000E+00 0.00000E+00 0.00000E+00
 -1        21 8.19188E+03-7.72061E+02 3.09148E+02
 -1        22 8.18914E+03-7.72072E+02-7.19264E+01
 -1        23 8.19162E+03-7.72050E+02-4.53461E+02
 -1        24 8.19034E+03-7.70808E+02-8.01417E+02
 -1        25 8.19052E+03-7.71942E+02-7.63030E+02
 -1        26 8.19034E+03-7.73568E+02-7.29531E+02
 -1        27 8.19188E+03-7.72061E+02-3.09148E+02
 -1        28 8.18914E+03-7.72072E+02 7.19264E+01
 -1        29 8.19162E+03-7.72050E+02 4.53461E+02
 -1        30 8.19034E+03-7.70808E+02 8.01417E+02
 -1        31 8.19052E+03-7.71942E+02 7.63030E+02
 -1        32 8.19034E+03-7.73568E+02 7.29531E+02
 -1        33 4.92939E+01-3.24807E+01-9.16633E+01
 -1        34 1.72528E+02-3.71279E+01-1.85338E+02
 -1        35 3.91453E+02-6.06781E+01-2.75050E+02
 -1        36 6.82647E+02-8.56127E+01-3.59064E+02
 -1        37 1.05266E+03-1.19534E+02-4.36335E+02
 -1        38 1.48769E+03-1.58480E+02-5.07755E+02
 -1        39 1.98669E+03-2.03855E+02-5.72245E+02
 -1        40 2.54051E+03-2.54053E+02-6.29906E+02
 -1        41 3.14412E+03-3.09039E+02-6.80092E+02
 -1        42 3.79017E+03-3.67991E+02-7.23197E+02
 -1        43 4.47173E+03-4.30141E+02-7.58786E+02
 -1        44 5.18321E+03-4.95319E+02-7.87671E+02
 -1        45 5.91594E+03-5.62682E+02-8.08649E+02
 -1        46 6.66709E+03-6.32363E+02-8.24138E+02
 -1        47 7.42469E+03-7.00241E+02-8.31347E+02
 -1        48 7.42462E+03-6.99516E+02 6.88116E+02
 -1        49 6.66635E+03-6.24502E+02 6.82149E+02
 -1        50 5.91498E+03-5.52550E+02 6.69329E+02
 -1        51 5.18193E+03-4.81742E+02 6.51965E+02
 -1        52 4.47009E+03-4.12752E+02 6.28057E+02
 -1        53 3.78813E+03-3.46372E+02 5.98599E+02
 -1        54 3.14171E+03-2.83489E+02 5.62921E+02
 -1        55 2.53774E+03-2.24644E+02 5.21380E+02
 -1        56 1.98353E+03-1.70395E+02 4.73654E+02
 -1        57 1.48422E+03-1.21665E+02 4.20275E+02
 -1        58 1.04880E+03-7.85583E+01 3.61160E+02
 -1        59 6.78603E+02-4.27044E+01 2.97201E+02
 -1        60 3.86930E+02-1.26955E+01 2.27662E+02
 -1        61 1.68559E+02 4.97568E+00 1.53406E+02
 -1        62 4.39993E+01 2.36865E+01 7.58708E+01
 -1        63 4.39993E+01 2.36865E+01-7.58708E+01
 -1        64 1.68559E+02 4.97568E+00-1.53406E+02
 -1        65 3.86930E+02-1.26955E+01-2.27662E+02
 -1        66 6.78603E+02-4.27044E+01-2.97201E+02
 -1        67 1.04880E+03-7.85583E+01-3.61160E+02
 -1        68 1.48422E+03-1.21665E+02-4.20275E+02
 -1        69 1.98353E+03-1.70395E+02-4.73654E+02
 -1        70 2.53774E+03-2.24644E+02-5.21380E+02
 -1        71 3.14171E+03-2.83489E+02-5.62921E+02
 -1        72 3.78813E+03-3.46372E+02-5.98599E+02
 -1        73 4.47009E+03-4.12752E+02-6.28057E+02
 -1        74 5.18193E+03-4.81742E+02-6.51965E+02
 -1        75 5.91498E+03-5.52550E+02-6.69329E+02
 -1        76 6.66635E+03-6.24502E+02-6.82149E+02
 -1        77 7.42462E+03-6.99516E+02-6.88116E+02
 -1        78 4.92939E+01-3.24807E+01 9.16633E+01
 -1        79 1.72528E+02-3.71279E+01 1.85338E+02
 -1        80 3.91453E+02-6.06781E+01 2.75050E+02
 -1        81 6.82647E+02-8.56127E+01 3.59064E+02
 -1        82 1.05266E+03-1.19534E+02 4.36335E+02
 -1        83 1.48769E+03-1.58480E+02 5.07755E+02
 -1        84 1.98669E+03-2.03855E+02 5.72245E+02
 -1        85 2.54051E+03-2.54053E+02 6.29906E+02
 -1        86 3.14412E+03-3.09039E+02 6.80092E+02
 -1        87 3.79017E+03-3.67991E+02 7.23197E+02
 -1        88 4.47173E+03-4.30141E+02 7.58786E+02
 -1        89 5.18321E+03-4.95319E+02 7.87671E+02
 -1        90 5.91594E+03-5.62682E+02 8.08649E+02
 -1        91 6.66709E+03-6.32363E+02 8.24138E+02
 -1        92 7.42469E+03-7.00241E+02 8.31347E+02
 -1        93 0.00000E+00 0.00000E+00 0.00000E+00
 -1        94 0.00000E+00 0.00000E+00 0.00000E+00
 -1        95 0.00000E+00 0.00000E+00 0.00000E+00
 -1        96 0.00000E+00 0.00000E+00 0.00000E+00
 -1        97 0.00000E+00 0.00000E+00 0.00000E+00
 -1        98 8.18988E+03-7.72033E+02-3.59017E+01
 -1        99 8.19010E+03-7.72012E+02 3.80863E+02
 -1       100 8.18965E+03-7.71991E+02-6.69615E-11
 -1       101 8.19010E+03-7.72012E+02-3.80863E+02
 -1       102 8.18988E+03-7.72033E+02 3.59017E+01
 -1       103 2.93408E+01-5.53446E+00-7.65931E+00
 -1       104 1.62374E+02-6.40198E+00 6.81809E+01
 -1       105 1.64289E+02-1.72442E+01-1.61762E+01
 -1       106 1.64339E+02-2.76510E+01-1.00296E+02
 -1       107 3.75393E+02-3.77638E+01-2.36955E+01
 -1       108 6.73012E+02-5.42429E+01 1.32082E+02
 -1       109 6.72471E+02-6.52457E+01-3.09944E+01
 -1       110 6.75034E+02-7.56430E+01-1.94053E+02
 -1       111 1.03977E+03-9.99891E+01-3.76177E+01
 -1       112 1.47859E+03-1.31535E+02 1.87276E+02
 -1       113 1.47773E+03-1.40969E+02-4.37829E+01
 -1       114 1.48032E+03-1.49955E+02-2.74839E+02
 -1       115 1.97651E+03-1.87907E+02-4.93343E+01
 -1       116 2.53308E+03-2.32516E+02 2.32441E+02
 -1       117 2.53206E+03-2.40046E+02-5.43001E+01
 -1       118 2.53447E+03-2.47224E+02-3.41051E+02
 -1       119 3.13651E+03-2.96868E+02-5.86280E+01
 -1       120 3.78449E+03-3.52170E+02 2.67061E+02
 -1       121 3.78362E+03-3.57674E+02-6.23339E+01
 -1       122 3.78551E+03-3.62940E+02-3.91742E+02
 -1       123 4.46669E+03-4.21871E+02-6.54086E+01
 -1       124 5.17939E+03-4.85261E+02 2.90928E+02
 -1       125 5.17830E+03-4.88806E+02-6.78634E+01
 -1       126 5.18003E+03-4.92232E+02-4.26689E+02
 -1       127 5.91366E+03-5.57889E+02-6.97140E+01
 -1       128 6.66415E+03-6.26892E+02 3.04911E+02
 -1       129 6.66358E+03-6.28473E+02-7.09883E+01
 -1       130 6.66451E+03-6.30107E+02-4.46934E+02
 -1       131 7.42525E+03-7.00038E+02-7.16759E+01
 -1       132 5.87122E+01-2.76579E+00-8.12537E+01
 -1       133 1.81627E+02-2.58258E+01-1.78289E+02
 -1       134 1.82935E+02-1.54866E+01-1.71605E+02
 -1       135 1.79624E+02-4.97151E+00-1.62408E+02
 -1       136 4.00617E+02-3.53861E+01-2.51373E+02
 -1       137 6.89955E+02-7.42640E+01-3.44086E+02
 -1       138 6.92157E+02-6.33899E+01-3.28803E+02
 -1       139 6.87938E+02-5.28085E+01-3.13343E+02
 -1       140 1.06073E+03-9.80127E+01-3.99067E+02
 -1       141 1.49396E+03-1.48658E+02-4.86238E+02
 -1       142 1.49547E+03-1.39297E+02-4.64470E+02
 -1       143 1.49222E+03-1.30261E+02-4.42678E+02
 -1       144 1.99341E+03-1.86314E+02-5.23362E+02
 -1       145 2.54535E+03-2.46197E+02-6.03123E+02
 -1       146 2.54653E+03-2.38683E+02-5.76041E+02
 -1       147 2.54396E+03-2.31491E+02-5.49063E+02
 -1       148 3.14932E+03-2.95661E+02-6.21954E+02
 -1       149 3.79362E+03-3.62192E+02-6.92388E+02
 -1       150 3.79438E+03-3.56659E+02-6.61268E+02
 -1       151 3.79261E+03-3.51388E+02-6.30287E+02
 -1       152 4.47541E+03-4.21049E+02-6.93886E+02
 -1       153 5.18519E+03-4.91667E+02-7.53931E+02
 -1       154 5.18550E+03-4.88128E+02-7.19928E+02
 -1       155 5.18453E+03-4.84855E+02-6.86285E+02
 -1       156 5.91835E+03-5.57446E+02-7.39560E+02
 -1       157 6.66758E+03-6.30121E+02-7.88762E+02
 -1       158 6.66714E+03-6.28137E+02-7.53079E+02
 -1       159 6.66728E+03-6.26294E+02-7.17890E+02
 -1       160 7.42635E+03-6.99935E+02-7.60373E+02
 -1       161 2.93408E+01-5.53446E+00 7.65931E+00
 -1       162 1.62374E+02-6.40198E+00-6.81809E+01
 -1       163 1.64289E+02-1.72442E+01 1.61762E+01
 -1       164 1.64339E+02-2.76510E+01 1.00296E+02
 -1       165 3.75393E+02-3.77638E+01 2.36955E+01
 -1       166 6.73012E+02-5.42429E+01-1.32082E+02
 -1       167 6.72471E+02-6.52457E+01 3.09944E+01
 -1       168 6.75034E+02-7.56430E+01 1.94053E+02
 -1       169 1.03977E+03-9.99891E+01 3.76177E+01
 -1       170 1.47859E+03-1.31535E+02-1.87276E+02
 -1       171 1.47773E+03-1.40969E+02 4.37829E+01
 -1       172 1.48032E+03-1.49955E+02 2.74839E+02
 -1       173 1.97651E+03-1.87907E+02 4.93343E+01
 -1       174 2.53308E+03-2.32516E+02-2.32441E+02
 -1       175 2.53206E+03-2.40046E+02 5.43001E+01
 -1       176 2.53447E+03-2.47224E+02 3.41051E+02
 -1       177 3.13651E+03-2.96868E+02 5.86280E+01
 -1       178 3.78449E+03-3.52170E+02-2.67061E+02
 -1       179 3.78362E+03-3.57674E+02 6.23339E+01
 -1       180 3.78551E+03-3.62940E+02 3.91742E+02
 -1       181 4.46669E+03-4.21871E+02 6.54086E+01
 -1       182 5.17939E+03-4.85261E+02-2.90928E+02
 -1       183 5.17830E+03-4.88806E+02 6.78634E+01
 -1       184 5.18003E+03-4.92232E+02 4.26689E+02
 -1       185 5.91366E+03-5.57889E+02 6.97140E+01
 -1       186 6.66415E+03-6.26892E+02-3.04911E+02
 -1       187 6.66358E+03-6.28473E+02 7.09883E+01
 -1       188 6.66451E+03-6.30107E+02 4.46934E+02
 -1       189 7.42525E+03-7.00038E+02 7.16759E+01
 -1       190 5.87122E+01-2.76579E+00 8.12537E+01
 -1       191 1.81627E+02-2.58258E+01 1.78289E+02
 -1       192 1.82935E+02-1.54866E+01 1.71605E+02
 -1       193 1.79624E+02-4.97151E+00 1.62408E+02
 -1       194 4.00617E+02-3.53861E+01 2.51373E+02
 -1       195 6.89955E+02-7.42640E+01 3.44086E+02
 -1       196 6.92157E+02-6.33899E+01 3.28803E+02
 -1       197 6.87938E+02-5.28085E+01 3.13343E+02
 -1       198 1.06073E+03-9.80127E+01 3.99067E+02
 -1       199 1.49396E+03-1.48658E+02 4.86238E+02
 -1       200 1.49547E+03-1.39297E+02 4.64470E+02
 -1       201 1.49222E+03-1.30261E+02 4.42678E+02
 -1       202 1.99341E+03-1.86314E+02 5.23362E+02
 -1       203 2.54535E+03-2.46197E+02 6.03123E+02
 -1       204 2.54653E+03-2.38683E+02 5.76041E+02
 -1       205 2.54396E+03-2.31491E+02 5.49063E+02
 -1       206 3.14932E+03-2.95661E+02 6.21954E+02
 -1       207 3.79362E+03-3.62192E+02 6.92388E+02
 -1       208 3.79438E+03-3.56659E+02 6.61268E+02
 -1       209 3.79261E+03-3.51388E+02 6.30287E+02
 -1       210 4.47541E+03-4.21049E+02 6.93886E+02
 -1       211 5.18519E+03-4.91667E+02 7.53931E+02
 -1       212 5.18550E+03-4.88128E+02 7.19928E+02
 -1       213 5.18453E+03-4.84855E+02 6.86285E+02
 -1       214 5.91835E+03-5.57446E+02 7.39560E+02
 -1       215 6.66758E+03-6.30121E+02 7.88762E+02
 -1       216 6.66714E+03-6.28137E+02 7.53079E+02
 -1       217 6.66728E+03-6.26294E+02 7.17890E+02
 -1       218 7.42635E+03-6.99935E+02 7.60373E+02
 -1       219 4.13693E+01-3.89964E+00-3.99325E-12
 -1       220 1.73993E+02-1.65106E+01-8.02457E+00
 -1       221 1.75153E+02-1.64013E+01 8.51285E+01
 -1       222 1.75731E+02-1.65652E+01-9.49285E-12
 -1       223 1.75153E+02-1.64013E+01-8.51285E+01
 -1       224 1.73993E+02-1.65106E+01 8.02457E+00
 -1       225 3.87207E+02-3.64997E+01-1.35287E-11
 -1       226 6.80361E+02-6.45875E+01-1.54247E+01
 -1       227 6.85176E+02-6.41336E+01 1.63632E+02
 -1       228 6.83194E+02-6.44007E+01-1.79625E-11
 -1       229 6.85176E+02-6.41336E+01-1.63632E+02
 -1       230 6.80361E+02-6.45875E+01 1.54247E+01
 -1       231 1.05004E+03-9.89808E+01-2.31921E-11
 -1       232 1.48469E+03-1.40338E+02-2.18194E+01
 -1       233 1.48877E+03-1.39953E+02 2.31471E+02
 -1       234 1.48688E+03-1.40159E+02-2.73985E-11
 -1       235 1.48877E+03-1.39953E+02-2.31471E+02
 -1       236 1.48469E+03-1.40338E+02 2.18194E+01
 -1       237 1.98489E+03-1.87104E+02-3.29692E-11
 -1       238 2.53757E+03-2.39539E+02-2.70695E+01
 -1       239 2.54115E+03-2.39202E+02 2.87166E+02
 -1       240 2.53942E+03-2.39377E+02-3.46745E-11
 -1       241 2.54115E+03-2.39202E+02-2.87166E+02
 -1       242 2.53757E+03-2.39539E+02 2.70695E+01
 -1       243 3.14286E+03-2.96259E+02-4.02451E-11
 -1       244 3.78769E+03-3.57297E+02-3.10870E+01
 -1       245 3.79038E+03-3.57043E+02 3.29786E+02
 -1       246 3.78909E+03-3.57176E+02-4.52474E-11
 -1       247 3.79038E+03-3.57043E+02-3.29786E+02
 -1       248 3.78769E+03-3.57297E+02 3.10870E+01
 -1       249 4.47102E+03-4.21457E+02-5.38876E-11
 -1       250 5.18107E+03-4.88566E+02-3.38543E+01
 -1       251 5.18295E+03-4.88389E+02 3.59142E+02
 -1       252 5.18206E+03-4.88483E+02-5.78666E-11
 -1       253 5.18295E+03-4.88389E+02-3.59142E+02
 -1       254 5.18107E+03-4.88566E+02 3.38543E+01
 -1       255 5.91584E+03-5.57652E+02-5.61613E-11
 -1       256 6.66459E+03-6.28337E+02-3.54259E+01
 -1       257 6.66571E+03-6.28232E+02 3.75815E+02
 -1       258 6.66512E+03-6.28282E+02-6.62794E-11
 -1       259 6.66571E+03-6.28232E+02-3.75815E+02
 -1       260 6.66459E+03-6.28337E+02 3.54259E+01
 -1       261 7.42626E+03-7.00030E+02-6.53699E-11
 -3
    1PSTEP                         4           1           2          
    1PGM                1.000000E+00                                  
    1PGK                2.538584E+09                                  
    1PHID                         -1                                  
    1PSUBC                         0                                  
    1PMODE                         2                                  
  100CL  103 8.01892E+03         261                     2    3MODAL      1
 -4  STRESS      6    1
 -5  SXX         1    4    1    1
 -5  SYY         1    4    2    2
 -5  SZZ         1    4    3    3
 -5  SXY         1    4    1    2
 -5  SYZ         1    4    2    3
 -5  SZX         1    4    3    1
 -1         1 1.07452E+07 9.94873E+06 3.75585E+07-1.14060E+06 6.85693E+06 7.31113E+05
 -1         2-1.28303E+07-1.21710E+07-4.53763E+07-1.37801E+06-7.11895E+06 2.04854E+06
 -1         3-1.07452E+07-9.94873E+06-3.75585E+07 1.14060E+06 6.85693E+06 7.31113E+05
 -1         4 1.28303E+07 1.21710E+07 4.53763E+07 1.37801E+06-7.11895E+06 2.04854E+06
 -1         5-2.32522E+06 6.76846E+05 1.75236E+05-9.55267E+05-3.38633E+05 7.77388E+05
 -1         6 2.23816E+06-2.46682E+05-2.11711E+05-1.15410E+06 1.96831E+05 7.26913E+05
 -1         7 2.32522E+06-6.76846E+05-1.75236E+05 9.55267E+05-3.38633E+05 7.77388E+05
 -1         8-2.23816E+06 2.46682E+05 2.11711E+05 1.15410E+06 1.96831E+05 7.26913E+05
 -1         9 2.22747E+06 3.31832E+06 1.57994E+07-1.20614E+06 3.21118E+06-1.46544E+06
 -1        10-9.08314E+05-9.85819E+05-3.58679E+06-1.21211E+06-4.39874E+05-3.69922E+06
 -1        11-4.17834E+06-5.41530E+06-2.32951E+07-1.26527E+06-3.78206E+06-8.43950E+05
 -1        12-1.15345E+07-1.06498E+07-4.16015E+07-4.30123E+05-3.18769E+06 3.35772E+06
 -1        13-1.04580E+07-9.63583E+06-3.80504E+07-1.14259E+05 3.48703E+05 4.66640E+06
 -1        14-1.07112E+07-1.00459E+07-3.79163E+07 1.97157E+05 3.40538E+06 2.69851E+06
 -1        15-2.22747E+06-3.31832E+06-1.57994E+07 1.20614E+06 3.21118E+06-1.46544E+06
 -1        16 9.08314E+05 9.85819E+05 3.58679E+06 1.21211E+06-4.39874E+05-3.69922E+06
 -1        17 4.17834E+06 5.41530E+06 2.32951E+07 1.26527E+06-3.78206E+06-8.43950E+05
 -1        18 1.15345E+07 1.06498E+07 4.16015E+07 4.30123E+05-3.18769E+06 3.35772E+06
 -1        19 1.04580E+07 9.63583E+06 3.80504E+07 1.14259E+05 3.48703E+05 4.66640E+06
 -1        20 1.07112E+07 1.00459E+07 3.79163E+07-1.97157E+05 3.40538E+06 2.69851E+06
 -1        21-1.20326E+06 7.03829E+04-8.11887E+04-7.46154E+05-4.99250E+04 1.09448E+06
 -1        22-6.20828E+04-7.09664E+03 7.77033E+03-4.20521E+05 4.60360E+03 1.38578E+06
 -1        23 1.09765E+06 1.37602E+05 7.07213E+04-7.29052E+05-1.63722E+04 1.04345E+06
 -1        24 1.10637E+06-4.51738E+05-4.83613E+04 2.11833E+04 1.69915E+05 3.50075E+05
 -1        25-7.52846E+04-6.58604E+05 8.24314E+04-3.96400E+04-1.30629E+05-4.88372E+04
 -1        26 1.10004E+06-6.68631E+05-6.26810E+04-1.60242E+05-3.71445E+05 3.53238E+05
 -1        27 1.20326E+06-7.03829E+04 8.11887E+04 7.46154E+05-4.99250E+04 1.09448E+06
 -1        28 6.20828E+04 7.09664E+03-7.77033E+03 4.20521E+05 4.60360E+03 1.38578E+06
 -1        29-1.09765E+06-1.37602E+05-7.07213E+04 7.29052E+05-1.63722E+04 1.04345E+06
 -1        30-1.10637E+06 4.51738E+05 4.83613E+04-2.11833E+04 1.69915E+05 3.50075E+05
 -1        31 7.52846E+04 6.58604E+05-8.24314E+04 3.96400E+04-1.30629E+05-4.88372E+04
 -1        32-1.10004E+06 6.68631E+05 6.26810E+04 1.60242E+05-3.71445E+05 3.53238E+05
 -1        33-3.54521E+06-3.02120E+06-4.07189E+07-7.36644E+05-1.44237E+06 2.19582E+05
 -1        34 3.03696E+06 2.72107E+06-3.74582E+07 4.01658E+05 1.53743E+06 4.98409E+04
 -1        35 4.69887E+05 4.54789E+04-3.62231E+07 2.74011E+05-1.81618E+05 3.97213E+05
 -1        36-2.46448E+05 8.60982E+04-3.38558E+07-2.20263E+05 2.64854E+05-9.62654E+04
 -1        37-2.72321E+05-1.47245E+05-3.12871E+07-5.06637E+04-1.88230E+04 2.93823E+05
 -1        38 2.36369E+05 1.32754E+05-2.84709E+07 3.24518E+04 9.83882E+04 1.70798E+05
 -1        39 1.88742E+04 7.27587E+03-2.55742E+07 1.77634E+04 3.08245E+04 2.99437E+05
 -1        40-1.17667E+04-3.84225E+03-2.26319E+07-1.78101E+04 6.10954E+04 2.08574E+05
 -1        41-1.94381E+04-3.94691E+03-1.95570E+07 2.94424E+02 3.32021E+04 2.90303E+05
 -1        42-1.89894E+04 2.16196E+03-1.64878E+07 2.27873E+04 5.46848E+04 2.43365E+05
 -1        43 4.24209E+04-1.84526E+03-1.34578E+07-2.38677E+04 4.41849E+04 2.80915E+05
 -1        44 5.77050E+04-2.71413E+04-1.04077E+07-4.67039E+04 7.42350E+04 1.32410E+05
 -1        45-7.52051E+04 4.40588E+04-7.62654E+06 7.04926E+04-5.37109E+03 3.56776E+05
 -1        46-5.32597E+05 6.27745E+04-4.77052E+06 2.91216E+05 2.14841E+04 2.15351E+05
 -1        47 6.06168E+05-1.57565E+05-2.43242E+06-3.54109E+05 1.91084E+05 1.73751E+05
 -1        48-6.47009E+05 2.75695E+05 2.01335E+06-2.93100E+05-2.27561E+05 2.13214E+05
 -1        49 5.54088E+05-1.65210E+05 3.94861E+06 2.41043E+05-6.28331E+04 2.23299E+05
 -1        50 8.49344E+04-5.91543E+04 6.31258E+06 5.83476E+04-6.23980E+04 3.62151E+05
 -1        51-6.39025E+04 3.86045E+04 8.61461E+06-3.86574E+04-1.00753E+05 1.48905E+05
 -1        52-4.35325E+04 9.94759E+03 1.11391E+07-1.97556E+04-9.84124E+04 2.94356E+05
 -1        53 1.97412E+04-5.81287E+03 1.36472E+07 1.88613E+04-1.01958E+05 2.58131E+05
 -1        54 1.90358E+04 3.20200E+02 1.61876E+07 2.43698E+02-8.90185E+04 3.01824E+05
 -1        55 1.12468E+04 1.67289E+03 1.87327E+07-1.47417E+04-1.01866E+05 2.23936E+05
 -1        56-1.78286E+04-3.81611E+03 2.11681E+07 1.47030E+04-8.83357E+04 3.10670E+05
 -1        57-2.15355E+05-9.01722E+04 2.35657E+07 2.68607E+04-1.32641E+05 1.92575E+05
 -1        58 2.49195E+05 9.80852E+04 2.58967E+07-4.19349E+04-3.67299E+04 2.95511E+05
 -1        59 2.67244E+05-1.34521E+05 2.80229E+07-1.82314E+05-2.51292E+05-4.76113E+04
 -1        60-4.69661E+05 4.30868E+04 2.99823E+07 2.26802E+05 1.09318E+05 3.69788E+05
 -1        61-2.57381E+06-2.19218E+06 3.10046E+07 3.32457E+05-1.57448E+06 3.43182E+05
 -1        62 3.03409E+06 2.40101E+06 3.37035E+07-6.09729E+05 1.42646E+06-5.08461E+04
 -1        63-3.03409E+06-2.40101E+06-3.37035E+07 6.09729E+05 1.42646E+06-5.08461E+04
 -1        64 2.57381E+06 2.19218E+06-3.10046E+07-3.32457E+05-1.57448E+06 3.43182E+05
 -1        65 4.69661E+05-4.30868E+04-2.99823E+07-2.26802E+05 1.09318E+05 3.69788E+05
 -1        66-2.67244E+05 1.34521E+05-2.80229E+07 1.82314E+05-2.51292E+05-4.76113E+04
 -1        67-2.49195E+05-9.80852E+04-2.58967E+07 4.19349E+04-3.67299E+04 2.95511E+05
 -1        68 2.15355E+05 9.01722E+04-2.35657E+07-2.68607E+04-1.32641E+05 1.92575E+05
 -1        69 1.78286E+04 3.81611E+03-2.11681E+07-1.47030E+04-8.83357E+04 3.10670E+05
 -1        70-1.12468E+04-1.67289E+03-1.87327E+07 1.47417E+04-1.01866E+05 2.23936E+05
 -1        71-1.90358E+04-3.20200E+02-1.61876E+07-2.43698E+02-8.90185E+04 3.01824E+05
 -1        72-1.97412E+04 5.81287E+03-1.36472E+07-1.88613E+04-1.01958E+05 2.58131E+05
 -1        73 4.35325E+04-9.94759E+03-1.11391E+07 1.97556E+04-9.84124E+04 2.94356E+05
 -1        74 6.39025E+04-3.86045E+04-8.61461E+06 3.86574E+04-1.00753E+05 1.48905E+05
 -1        75-8.49344E+04 5.91543E+04-6.31258E+06-5.83476E+04-6.23980E+04 3.62151E+05
 -1        76-5.54088E+05 1.65210E+05-3.94861E+06-2.41043E+05-6.28331E+04 2.23299E+05
 -1        77 6.47009E+05-2.75695E+05-2.01335E+06 2.93100E+05-2.27561E+05 2.13214E+05
 -1        78 3.54521E+06 3.02120E+06 4.07189E+07 7.36644E+05-1.44237E+06 2.19582E+05
 -1        79-3.03696E+06-2.72107E+06 3.74582E+07-4.01658E+05 1.53743E+06 4.98409E+04
 -1        80-4.69887E+05-4.54789E+04 3.62231E+07-2.74011E+05-1.81618E+05 3.97213E+05
 -1        81 2.46448E+05-8.60982E+04 3.38558E+07 2.20263E+05 2.64854E+05-9.62654E+04
 -1        82 2.72321E+05 1.47245E+05 3.12871E+07 5.06637E+04-1.88230E+04 2.93823E+05
 -1        83-2.36369E+05-1.32754E+05 2.84709E+07-3.24518E+04 9.83882E+04 1.70798E+05
 -1        84-1.88742E+04-7.27587E+03 2.55742E+07-1.77634E+04 3.08245E+04 2.99437E+05
 -1        85 1.17667E+04 3.84225E+03 2.26319E+07 1.78101E+04 6.10954E+04 2.08574E+05
 -1        86 1.94381E+04 3.94691E+03 1.95570E+07-2.94424E+02 3.32021E+04 2.90303E+05
 -1        87 1.89894E+04-2.16196E+03 1.64878E+07-2.27873E+04 5.46848E+04 2.43365E+05
 -1        88-4.24209E+04 1.84526E+03 1.34578E+07 2.38677E+04 4.41849E+04 2.80915E+05
 -1        89-5.77050E+04 2.71413E+04 1.04077E+07 4.67039E+04 7.42350E+04 1.32410E+05
 -1        90 7.52051E+04-4.40588E+04 7.62654E+06-7.04926E+04-5.37109E+03 3.56776E+05
 -1        91 5.32597E+05-6.27745E+04 4.77052E+06-2.91216E+05 2.14841E+04 2.15351E+05
 -1        92-6.06168E+05 1.57565E+05 2.43242E+06 3.54109E+05 1.91084E+05 1.73751E+05
 -1        93-3.46989E+05-2.46168E+05-1.68288E+06-2.66453E+05-2.03072E+05-2.02852E+06
 -1        94 2.61147E+06 3.68102E+06 1.78528E+07 2.51170E+04 1.91216E+05 2.15429E+06
 -1        95-3.07569E-07-2.44007E-07-1.52271E-06-3.45754E-08 3.37295E+04-3.57819E+05
 -1        96-2.61147E+06-3.68102E+06-1.78528E+07-2.51170E+04 1.91216E+05 2.15429E+06
 -1        97 3.46989E+05 2.46168E+05 1.68288E+06 2.66453E+05-2.03072E+05-2.02852E+06
 -1        98-1.03709E+04-6.45622E+03 9.49825E+03-4.24382E+05-2.52523E+04 9.85195E+05
 -1        99 6.84907E+04 1.10020E+05-1.00762E+05 4.00041E+04-9.28686E+04 2.67888E+05
 -1       100 2.70080E-07 9.89805E-06 2.50882E-06 6.41099E-06-5.51082E+04 5.84614E+05
 -1       101-6.84907E+04-1.10020E+05 1.00762E+05-4.00041E+04-9.28686E+04 2.67888E+05
 -1       102 1.03709E+04 6.45622E+03-9.49825E+03 4.24382E+05-2.52523E+04 9.85195E+05
 -1       103-2.90725E+05-3.20288E+05-3.56256E+06-7.35138E+05-1.14750E+05-1.26640E+05
 -1       104-3.53533E+05-6.37074E+05 1.41495E+07 2.97230E+05-7.71307E+05 9.99745E+05
 -1       105 1.54548E+05 2.37793E+05-3.35261E+06 2.40868E+05 5.69609E+04 1.67079E+06
 -1       106 7.39653E+05 1.13932E+06-2.07289E+07 3.10696E+05 8.09744E+05 8.67556E+05
 -1       107-1.34970E+03 6.16228E+04-3.09083E+06 2.21405E+05-2.28528E+04 1.15525E+06
 -1       108-2.15952E+05-2.38322E+05 1.23652E+07-1.98652E+05-1.12137E+05 8.57379E+05
 -1       109-7.80643E+03-4.25502E+04-2.95949E+06-2.00077E+05 4.85367E+03 1.75164E+06
 -1       110 2.18544E+05 1.71560E+05-1.82412E+07-2.02714E+05 1.23772E+05 8.22323E+05
 -1       111-1.01661E+04-2.29905E+04-2.68957E+06-4.28639E+04-1.87168E+04 1.54700E+06
 -1       112-7.91568E+04-2.67713E+04 1.05599E+07 2.88303E+04-6.21563E+04 9.71213E+05
 -1       113 5.28805E+03 1.81572E+04-2.46107E+06 2.70194E+04-1.24844E+04 1.74421E+06
 -1       114 9.49518E+04 6.62192E+04-1.54736E+07 2.78453E+04 3.25454E+04 9.54683E+05
 -1       115 4.18295E+02 3.02370E+03-2.20234E+06 1.28502E+04-1.86813E+04 1.70436E+06
 -1       116-2.43361E+04-1.45423E+04 8.37387E+06-1.43382E+04-4.70038E+04 1.03931E+06
 -1       117-1.01826E+03-2.61354E+03-1.95166E+06-1.25584E+04-1.48432E+04 1.84797E+06
 -1       118 2.30579E+04 1.08441E+04-1.22751E+07-1.44961E+04 1.17756E+04 1.02492E+06
 -1       119-3.29166E+02-1.34629E+03-1.68459E+06-1.28624E+03-1.80041E+04 1.78984E+06
 -1       120 1.43412E+04 2.62465E+03 6.11556E+06 1.39803E+04-4.71191E+04 1.05417E+06
 -1       121 7.72617E+02 1.89124E+03-1.41956E+06 6.78906E+03-1.71108E+04 1.84346E+06
 -1       122-1.31927E+04-2.55886E+03-8.95545E+06 1.36331E+04 6.37172E+03 1.04004E+06
 -1       123-6.68944E+02-6.34389E+02-1.15985E+06-7.95515E+03-1.67558E+04 1.77627E+06
 -1       124 2.00257E+04 3.11891E+04 3.89234E+06-3.31058E+04-4.98258E+04 9.90816E+05
 -1       125-1.60586E+03-2.32647E+03-8.96351E+05-1.64137E+04-1.66725E+04 1.82693E+06
 -1       126-2.47303E+04-2.77840E+04-5.68526E+06-2.59886E+04 1.98943E+04 9.76772E+05
 -1       127 3.73612E+03 5.30819E+03-6.52630E+05 3.17578E+04-1.85442E+04 1.56913E+06
 -1       128 2.41448E+05-5.40647E+04 1.73191E+06 1.77720E+05-1.97877E+04 8.90498E+05
 -1       129 8.74772E+03 1.68470E+03-4.15579E+05 8.23389E+04-1.47917E+04 1.55482E+06
 -1       130-2.21955E+05 4.53173E+03-2.55844E+06 1.70749E+05-1.56784E+04 8.83648E+05
 -1       131-2.71881E+04-9.11688E+03-2.03457E+05-1.67119E+05-3.41803E+03 1.66790E+06
 -1       132-3.39778E+06-3.08415E+06-3.77933E+07-6.92972E+04 1.19376E+04 1.21733E+06
 -1       133 2.74773E+06 2.09959E+06-3.65426E+07 1.00079E+05 6.13151E+05-2.78397E+05
 -1       134 2.52263E+06 1.63952E+06-3.55661E+07 2.27052E+04-1.57496E+05-6.04269E+05
 -1       135 2.58028E+06 1.99655E+06-3.32549E+07-4.27734E+04-7.89171E+05-1.29361E+05
 -1       136 6.53725E+05-1.43183E+04-3.27890E+07 2.08705E+04-1.08899E+05 2.42434E+05
 -1       137-3.34801E+05 3.42263E+04-3.26101E+07-4.04642E+04 1.06773E+05-7.28331E+04
 -1       138-4.51393E+05-8.28144E+04-3.13957E+07-1.88601E+04-1.65117E+05-5.14901E+04
 -1       139-3.73438E+05-6.73115E+03-2.97250E+07 2.62983E+03-2.65109E+05-5.05953E+04
 -1       140-2.43894E+05-1.07847E+05-2.85323E+07-4.04053E+03-1.45827E+05 1.98556E+05
 -1       141 2.13624E+05 9.19866E+04-2.72903E+07-2.55319E+03-3.08945E+03 1.52600E+05
 -1       142 1.92620E+05 5.60981E+04-2.61083E+07 2.54696E+03-1.64416E+05 1.32440E+05
 -1       143 2.04858E+05 7.55744E+04-2.48363E+07 7.89568E+03-1.78454E+05 1.61527E+05
 -1       144 3.20769E+04 4.43747E+03-2.33635E+07 1.21132E+03-1.60660E+05 1.98180E+05
 -1       145-1.84197E+04-4.54612E+03-2.16664E+07-2.19682E+03-2.09373E+04 1.84089E+05
 -1       146-2.77257E+04-1.08022E+04-2.07041E+07-1.18380E+03-1.74198E+05 1.57464E+05
 -1       147-2.08127E+04-9.01368E+03-1.97200E+07-5.21216E+02-1.73645E+05 1.89630E+05
 -1       148-1.42821E+04-3.49195E+03-1.78709E+07-1.21247E+02-1.68717E+05 1.90996E+05
 -1       149 1.04650E+02 4.79412E+03-1.57738E+07-5.40095E+02-2.37292E+04 2.13613E+05
 -1       150 2.00632E+04 8.19629E+03-1.50594E+07 6.39965E+02-1.73773E+05 1.81520E+05
 -1       151 5.93269E+02 7.38959E+03-1.43531E+07 3.14305E+03-1.73680E+05 2.18655E+05
 -1       152-6.72990E+03-7.09648E+03-1.23042E+07-7.49886E+02-1.67438E+05 1.77754E+05
 -1       153 1.52822E+04-2.70638E+04-9.96146E+06 3.49665E+04-1.82444E+04 1.55478E+05
 -1       154-2.46803E+04-1.70358E+04-9.50892E+06-1.54723E+03-1.72214E+05 1.76870E+05
 -1       155 2.08413E+04-2.28449E+04-9.05864E+06-4.05370E+04-1.67229E+05 1.62050E+05
 -1       156 5.63118E+04 3.96346E+04-6.92342E+06 2.99362E+03-1.47913E+05 1.96726E+05
 -1       157-2.59973E+05 8.15550E+04-4.58633E+06-2.05495E+04-4.72890E+04 1.87928E+05
 -1       158 1.78721E+04 9.28001E+04-4.40867E+06 7.76161E+03-1.46564E+05 1.56917E+05
 -1       159-2.65497E+05 1.25237E+05-4.18190E+06 5.33976E+04-1.19949E+05 1.88315E+05
 -1       160-9.67163E+04-2.88424E+05-2.15837E+06-1.57534E+04-1.57223E+05 3.62601E+04
 -1       161 2.90725E+05 3.20288E+05 3.56256E+06 7.35138E+05-1.14750E+05-1.26640E+05
 -1       162 3.53533E+05 6.37074E+05-1.41495E+07-2.97230E+05-7.71307E+05 9.99745E+05
 -1       163-1.54548E+05-2.37793E+05 3.35261E+06-2.40868E+05 5.69609E+04 1.67079E+06
 -1       164-7.39653E+05-1.13932E+06 2.07289E+07-3.10696E+05 8.09744E+05 8.67556E+05
 -1       165 1.34970E+03-6.16228E+04 3.09083E+06-2.21405E+05-2.28528E+04 1.15525E+06
 -1       166 2.15952E+05 2.38322E+05-1.23652E+07 1.98652E+05-1.12137E+05 8.57379E+05
 -1       167 7.80643E+03 4.25502E+04 2.95949E+06 2.00077E+05 4.85367E+03 1.75164E+06
 -1       168-2.18544E+05-1.71560E+05 1.82412E+07 2.02714E+05 1.23772E+05 8.22323E+05
 -1       169 1.01661E+04 2.29905E+04 2.68957E+06 4.28639E+04-1.87168E+04 1.54700E+06
 -1       170 7.91568E+04 2.67713E+04-1.05599E+07-2.88303E+04-6.21563E+04 9.71213E+05
 -1       171-5.28805E+03-1.81572E+04 2.46107E+06-2.70194E+04-1.24844E+04 1.74421E+06
 -1       172-9.49518E+04-6.62192E+04 1.54736E+07-2.78453E+04 3.25454E+04 9.54683E+05
 -1       173-4.18295E+02-3.02370E+03 2.20234E+06-1.28502E+04-1.86813E+04 1.70436E+06
 -1       174 2.43361E+04 1.45423E+04-8.37387E+06 1.43382E+04-4.70038E+04 1.03931E+06
 -1       175 1.01826E+03 2.61354E+03 1.95166E+06 1.25584E+04-1.48432E+04 1.84797E+06
 -1       176-2.30579E+04-1.08441E+04 1.22751E+07 1.44961E+04 1.17756E+04 1.02492E+06
 -1       177 3.29166E+02 1.34629E+03 1.68459E+06 1.28624E+03-1.80041E+04 1.78984E+06
 -1       178-1.43412E+04-2.62465E+03-6.11556E+06-1.39803E+04-4.71191E+04 1.05417E+06
 -1       179-7.72617E+02-1.89124E+03 1.41956E+06-6.78906E+03-1.71108E+04 1.84346E+06
 -1       180 1.31927E+04 2.55886E+03 8.95545E+06-1.36331E+04 6.37172E+03 1.04004E+06
 -1       181 6.68944E+02 6.34389E+02 1.15985E+06 7.95515E+03-1.67558E+04 1.77627E+06
 -1       182-2.00257E+04-3.11891E+04-3.89234E+06 3.31058E+04-4.98258E+04 9.90816E+05
 -1       183 1.60586E+03 2.32647E+03 8.96351E+05 1.64137E+04-1.66725E+04 1.82693E+06
 -1       184 2.47303E+04 2.77840E+04 5.68526E+06 2.59886E+04 1.98943E+04 9.76772E+05
 -1       185-3.73612E+03-5.30819E+03 6.52630E+05-3.17578E+04-1.85442E+04 1.56913E+06
 -1       186-2.41448E+05 5.40647E+04-1.73191E+06-1.77720E+05-1.97877E+04 8.90498E+05
 -1       187-8.74772E+03-1.68470E+03 4.15579E+05-8.23389E+04-1.47917E+04 1.55482E+06
 -1       188 2.21955E+05-4.53173E+03 2.55844E+06-1.70749E+05-1.56784E+04 8.83648E+05
 -1       189 2.71881E+04 9.11688E+03 2.03457E+05 1.67119E+05-3.41803E+03 1.66790E+06
 -1       190 3.39778E+06 3.08415E+06 3.77933E+07 6.92972E+04 1.19376E+04 1.21733E+06
 -1       191-2.74773E+06-2.09959E+06 3.65426E+07-1.00079E+05 6.13151E+05-2.78397E+05
 -1       192-2.52263E+06-1.63952E+06 3.55661E+07-2.27052E+04-1.57496E+05-6.04269E+05
 -1       193-2.58028E+06-1.99655E+06 3.32549E+07 4.27734E+04-7.89171E+05-1.29361E+05
 -1       194-6.53725E+05 1.43183E+04 3.27890E+07-2.08705E+04-1.08899E+05 2.42434E+05
 -1       195 3.34801E+05-3.42263E+04 3.26101E+07 4.04642E+04 1.06773E+05-7.28331E+04
 -1       196 4.51393E+05 8.28144E+04 3.13957E+07 1.88601E+04-1.65117E+05-5.14901E+04
 -1       197 3.73438E+05 6.73115E+03 2.97250E+07-2.62983E+03-2.65109E+05-5.05953E+04
 -1       198 2.43894E+05 1.07847E+05 2.85323E+07 4.04053E+03-1.45827E+05 1.98556E+05
 -1       199-2.13624E+05-9.19866E+04 2.72903E+07 2.55319E+03-3.08945E+03 1.52600E+05
 -1       200-1.92620E+05-5.60981E+04 2.61083E+07-2.54696E+03-1.64416E+05 1.32440E+05
 -1       201-2.04858E+05-7.55744E+04 2.48363E+07-7.89568E+03-1.78454E+05 1.61527E+05
 -1       202-3.20769E+04-4.43747E+03 2.33635E+07-1.21132E+03-1.60660E+05 1.98180E+05
 -1       203 1.84197E+04 4.54612E+03 2.16664E+07 2.19682E+03-2.09373E+04 1.84089E+05
 -1       204 2.77257E+04 1.08022E+04 2.07041E+07 1.18380E+03-1.74198E+05 1.57464E+05
 -1       205 2.08127E+04 9.01368E+03 1.97200E+07 5.21216E+02-1.73645E+05 1.89630E+05
 -1       206 1.42821E+04 3.49195E+03 1.78709E+07 1.21247E+02-1.68717E+05 1.90996E+05
 -1       207-1.04650E+02-4.79412E+03 1.57738E+07 5.40095E+02-2.37292E+04 2.13613E+05
 -1       208-2.00632E+04-8.19629E+03 1.50594E+07-6.39965E+02-1.73773E+05 1.81520E+05
 -1       209-5.93269E+02-7.38959E+03 1.43531E+07-3.14305E+03-1.73680E+05 2.18655E+05
 -1       210 6.72990E+03 7.09648E+03 1.23042E+07 7.49886E+02-1.67438E+05 1.77754E+05
 -1       211-1.52822E+04 2.70638E+04 9.96146E+06-3.49665E+04-1.82444E+04 1.55478E+05
 -1       212 2.46803E+04 1.70358E+04 9.50892E+06 1.54723E+03-1.72214E+05 1.76870E+05
 -1       213-2.08413E+04 2.28449E+04 9.05864E+06 4.05370E+04-1.67229E+05 1.62050E+05
 -1       214-5.63118E+04-3.96346E+04 6.92342E+06-2.99362E+03-1.47913E+05 1.96726E+05
 -1       215 2.59973E+05-8.15550E+04 4.58633E+06 2.05495E+04-4.72890E+04 1.87928E+05
 -1       216-1.78721E+04-9.28001E+04 4.40867E+06-7.76161E+03-1.46564E+05 1.56917E+05
 -1       217 2.65497E+05-1.25237E+05 4.18190E+06-5.33976E+04-1.19949E+05 1.88315E+05
 -1       218 9.67163E+04 2.88424E+05 2.15837E+06 1.57534E+04-1.57223E+05 3.62601E+04
 -1       219-1.74623E-08-4.93310E-08-2.00188E-06 1.10260E-07-1.01402E+05 1.07572E+06
 -1       220 4.36134E+04 3.50426E+04-1.70897E+06-5.38117E+04-3.10827E+04 1.46727E+06
 -1       221-3.71749E+05-4.62672E+05 1.81296E+07 5.07252E+03-1.38311E+05 3.29741E+05
 -1       222 1.38010E-07 2.98838E-07-1.97245E-06 1.63331E-07-1.19126E+05 1.26375E+06
 -1       223 3.71749E+05 4.62672E+05-1.81296E+07-5.07252E+03-1.38311E+05 3.29741E+05
 -1       224-4.36134E+04-3.50426E+04 1.70897E+06 5.38117E+04-3.10827E+04 1.46727E+06
 -1       225 1.65397E-07 2.61585E-07-1.63904E-06-7.98900E-08-9.64676E+04 1.02338E+06
 -1       226 1.17711E+04 1.59789E+04-1.46354E+06-2.06948E+04-6.51446E+04 1.59265E+06
 -1       227-1.69512E+05-1.24874E+05 1.55260E+07 1.95078E+03-1.50130E+05 6.91085E+05
 -1       228 7.51243E-08-3.53321E-08-2.11172E-06-2.53796E-07-1.35143E+05 1.43366E+06
 -1       229 1.69512E+05 1.24874E+05-1.55260E+07-1.95078E+03-1.50130E+05 6.91085E+05
 -1       230-1.17711E+04-1.59789E+04 1.46354E+06 2.06948E+04-6.51446E+04 1.59265E+06
 -1       231 5.02972E-07-9.72115E-07-2.01695E-06 4.87147E-07-1.14869E+05 1.21859E+06
 -1       232 1.16575E+03 5.19609E+03-1.23184E+06-6.83923E+03-7.19952E+04 1.56965E+06
 -1       233-5.51227E+04-1.23668E+04 1.30679E+07 6.44694E+02-1.47961E+05 7.63760E+05
 -1       234 1.77469E-06-2.06718E-06-2.35319E-06 1.25097E-06-1.31506E+05 1.39508E+06
 -1       235 5.51227E+04 1.23668E+04-1.30679E+07-6.44694E+02-1.47961E+05 7.63760E+05
 -1       236-1.16575E+03-5.19609E+03 1.23184E+06 6.83923E+03-7.19952E+04 1.56965E+06
 -1       237-2.07445E-06-2.53498E-07-2.21157E-06 6.66901E-07-1.28399E+05 1.36212E+06
 -1       238 8.99518E+02 1.70502E+03-9.74221E+05-1.61624E+03-7.63950E+04 1.65569E+06
 -1       239-1.80877E+04-9.54252E+03 1.03350E+07 1.52353E+02-1.56072E+05 8.10435E+05
 -1       240-6.51882E-06 1.04163E-06-2.67809E-06 1.60422E-07-1.37947E+05 1.46341E+06
 -1       241 1.80877E+04 9.54252E+03-1.03350E+07-1.52353E+02-1.56072E+05 8.10435E+05
 -1       242-8.99518E+02-1.70502E+03 9.74221E+05 1.61624E+03-7.63950E+04 1.65569E+06
 -1       243-1.96810E-06 7.64717E-07-2.28903E-06-3.97425E-07-1.34956E+05 1.43168E+06
 -1       244-1.24829E+01 7.36407E+02-7.10006E+05 3.52418E+03-7.71503E+04 1.64942E+06
 -1       245-7.81217E+03 1.32424E+02 7.53208E+06-3.32204E+02-1.55481E+05 8.18448E+05
 -1       246 3.57793E-06 1.48424E-06-1.62105E-06-4.36283E-07-1.37190E+05 1.45538E+06
 -1       247 7.81217E+03-1.32424E+02-7.53208E+06 3.32204E+02-1.55481E+05 8.18448E+05
 -1       248 1.24829E+01-7.36407E+02 7.10006E+05-3.52418E+03-7.71503E+04 1.64942E+06
 -1       249-3.04734E-06 2.61199E-06-2.75822E-06-3.42599E-07-1.33372E+05 1.41487E+06
 -1       250-1.56316E+02-2.32081E+03-4.48873E+05-1.42067E+04-7.59993E+04 1.63127E+06
 -1       251 2.46202E+04 1.65828E+03 4.76187E+06 1.33918E+03-1.53770E+05 8.06237E+05
 -1       252-1.21300E-05 4.31357E-06-1.08615E-06 2.24188E-07-1.35326E+05 1.43560E+06
 -1       253-2.46202E+04-1.65828E+03-4.76187E+06-1.33918E+03-1.53770E+05 8.06237E+05
 -1       254 1.56316E+02 2.32081E+03 4.48873E+05 1.42067E+04-7.59993E+04 1.63127E+06
 -1       255-1.65959E-06-1.15835E-06-2.64207E-06-3.72247E-06-1.20333E+05 1.27655E+06
 -1       256-4.62895E+02 2.02236E+03-2.09329E+05 8.43273E+04-6.82043E+04 1.42250E+06
 -1       257-2.14542E+04 4.91061E+03 2.22066E+06-7.94904E+03-1.34090E+05 7.23544E+05
 -1       258 6.01610E-06-6.83714E-06-2.81612E-06-6.65421E-06-1.21617E+05 1.29017E+06
 -1       259 2.14542E+04-4.91061E+03-2.22066E+06 7.94904E+03-1.34090E+05 7.23544E+05
 -1       260 4.62895E+02-2.02236E+03 2.09329E+05-8.43273E+04-6.82043E+04 1.42250E+06
 -1       261 1.01286E-06 1.82065E-06 1.41305E-06 9.20918E-07-9.87462E+04 1.04755E+06
 -3
    1PSTEP                         5           1           2          
    1PGM                1.000000E+00                                  
    1PGK                2.056135E+11                                  
    1PHID                         -1                                  
    1PSUBC                         0                                  
    1PMODE                         3                                  
  100CL  104 7.21682E+04         261                     2    4MODAL      1
 -4  DISP        4    1
 -5  D1          1    2    1    0
 -5  D2          1    2    2    0
 -5  D3          1    2    3    0
 -5  ALL         1    2    0    0    1ALL
 -1         1 0.00000E+00 0.00000E+00 0.00000E+00
 -1         2 0.00000E+00 0.00000E+00 0.00000E+00
 -1         3 0.00000E+00 0.00000E+00 0.00000E+00
 -1         4 0.00000E+00 0.00000E+00 0.00000E+00
 -1         5-2.34578E+01 7.51198E+03 2.27801E+03
 -1         6-4.85503E+00 7.51195E+03 2.28662E+03
 -1         7-2.34578E+01 7.51198E+03-2.27801E+03
 -1         8-4.85503E+00 7.51195E+03-2.28662E+03
 -1         9 0.00000E+00 0.00000E+00 0.00000E+00
 -1        10 0.00000E+00 0.00000E+00 0.00000E+00
 -1        11 0.00000E+00 0.00000E+00 0.00000E+00
 -1        12 0.00000E+00 0.00000E+00 0.00000E+00
 -1        13 0.00000E+00 0.00000E+00 0.00000E+00
 -1        14 0.00000E+00 0.00000E+00 0.00000E+00
 -1        15 0.00000E+00 0.00000E+00 0.00000E+00
 -1        16 0.00000E+00 0.00000E+00 0.00000E+00
 -1        17 0.00000E+00 0.00000E+00 0.00000E+00
 -1        18 0.00000E+00 0.00000E+00 0.00000E+00
 -1        19 0.00000E+00 0.00000E+00 0.00000E+00
 -1        20 0.00000E+00 0.00000E+00 0.00000E+00
 -1        21-1.82802E+01 7.50901E+03 2.27692E+03
 -1        22-1.41384E+01 7.51025E+03 2.27238E+03
 -1        23-1.00336E+01 7.50900E+03 2.28119E+03
 -1        24-1.38424E+01 7.51224E+03 1.13740E+03
 -1        25-1.41532E+01 7.50244E+03 4.28233E+00
 -1        26-1.44593E+01 7.51226E+03-1.12881E+03
 -1        27-1.82802E+01 7.50901E+03-2.27692E+03
 -1        28-1.41384E+01 7.51025E+03-2.27238E+03
 -1        29-1.00336E+01 7.50900E+03-2.28119E+03
 -1        30-1.38424E+01 7.51224E+03-1.13740E+03
 -1        31-1.41532E+01 7.50244E+03-4.28233E+00
 -1        32-1.44593E+01 7.51226E+03 1.12881E+03
 -1        33 1.41910E+02-4.05722E+02-4.71921E+02
 -1        34 5.09377E+01-1.17981E+03-8.14713E+02
 -1        35 2.95790E+01-2.26644E+03-9.77410E+02
 -1        36-2.08857E+01-3.37541E+03-9.76831E+02
 -1        37-5.42362E+01-4.41839E+03-8.26337E+02
 -1        38-8.72385E+01-5.20893E+03-5.56964E+02
 -1        39-1.07814E+02-5.66120E+03-1.92330E+02
 -1        40-1.20478E+02-5.68124E+03 2.29864E+02
 -1        41-1.22016E+02-5.23710E+03 6.74582E+02
 -1        42-1.15397E+02-4.32181E+03 1.10659E+03
 -1        43-1.00085E+02-2.97387E+03 1.49258E+03
 -1        44-8.04545E+01-1.25255E+03 1.81238E+03
 -1        45-5.84385E+01 7.47290E+02 2.04369E+03
 -1        46-3.93730E+01 2.94119E+03 2.19329E+03
 -1        47-1.80876E+01 5.21294E+03 2.25747E+03
 -1        48-1.56001E+00 5.21291E+03 2.24897E+03
 -1        49 2.82878E+01 2.94106E+03 2.18504E+03
 -1        50 5.56224E+01 7.47075E+02 2.03600E+03
 -1        51 8.51760E+01-1.25286E+03 1.80556E+03
 -1        52 1.11294E+02-2.97427E+03 1.48696E+03
 -1        53 1.31687E+02-4.32227E+03 1.10243E+03
 -1        54 1.41755E+02-5.23759E+03 6.72045E+02
 -1        55 1.41892E+02-5.68173E+03 2.28999E+02
 -1        56 1.29152E+02-5.66165E+03-1.91606E+02
 -1        57 1.06872E+02-5.20929E+03-5.54869E+02
 -1        58 7.08897E+01-4.41862E+03-8.23229E+02
 -1        59 3.36079E+01-3.37552E+03-9.73156E+02
 -1        60-2.10369E+01-2.26634E+03-9.73734E+02
 -1        61-4.64913E+01-1.17962E+03-8.11648E+02
 -1        62-1.40382E+02-4.05190E+02-4.70146E+02
 -1        63-1.40382E+02-4.05190E+02 4.70146E+02
 -1        64-4.64913E+01-1.17962E+03 8.11648E+02
 -1        65-2.10369E+01-2.26634E+03 9.73734E+02
 -1        66 3.36079E+01-3.37552E+03 9.73156E+02
 -1        67 7.08897E+01-4.41862E+03 8.23229E+02
 -1        68 1.06872E+02-5.20929E+03 5.54869E+02
 -1        69 1.29152E+02-5.66165E+03 1.91606E+02
 -1        70 1.41892E+02-5.68173E+03-2.28999E+02
 -1        71 1.41755E+02-5.23759E+03-6.72045E+02
 -1        72 1.31687E+02-4.32227E+03-1.10243E+03
 -1        73 1.11294E+02-2.97427E+03-1.48696E+03
 -1        74 8.51760E+01-1.25286E+03-1.80556E+03
 -1        75 5.56224E+01 7.47075E+02-2.03600E+03
 -1        76 2.82878E+01 2.94106E+03-2.18504E+03
 -1        77-1.56001E+00 5.21291E+03-2.24897E+03
 -1        78 1.41910E+02-4.05722E+02 4.71921E+02
 -1        79 5.09377E+01-1.17981E+03 8.14713E+02
 -1        80 2.95790E+01-2.26644E+03 9.77410E+02
 -1        81-2.08857E+01-3.37541E+03 9.76831E+02
 -1        82-5.42362E+01-4.41839E+03 8.26337E+02
 -1        83-8.72385E+01-5.20893E+03 5.56964E+02
 -1        84-1.07814E+02-5.66120E+03 1.92330E+02
 -1        85-1.20478E+02-5.68124E+03-2.29864E+02
 -1        86-1.22016E+02-5.23710E+03-6.74582E+02
 -1        87-1.15397E+02-4.32181E+03-1.10659E+03
 -1        88-1.00085E+02-2.97387E+03-1.49258E+03
 -1        89-8.04545E+01-1.25255E+03-1.81238E+03
 -1        90-5.84385E+01 7.47290E+02-2.04369E+03
 -1        91-3.93730E+01 2.94119E+03-2.19329E+03
 -1        92-1.80876E+01 5.21294E+03-2.25747E+03
 -1        93 0.00000E+00 0.00000E+00 0.00000E+00
 -1        94 0.00000E+00 0.00000E+00 0.00000E+00
 -1        95 0.00000E+00 0.00000E+00 0.00000E+00
 -1        96 0.00000E+00 0.00000E+00 0.00000E+00
 -1        97 0.00000E+00 0.00000E+00 0.00000E+00
 -1        98-1.41433E+01 7.50867E+03 1.13330E+03
 -1        99-1.41502E+01 7.50503E+03-2.13572E+00
 -1       100-1.41446E+01 7.50569E+03 1.68257E-11
 -1       101-1.41502E+01 7.50503E+03 2.13572E+00
 -1       102-1.41433E+01 7.50867E+03-1.13330E+03
 -1       103 6.09263E-01-4.63992E+02-4.64927E+02
 -1       104-2.16727E+01-1.21233E+03-8.30027E+02
 -1       105 2.22876E+00-1.21612E+03-8.35572E+02
 -1       106 2.60665E+01-1.21242E+03-8.31440E+02
 -1       107 4.21988E+00-2.27546E+03-9.83681E+02
 -1       108 2.00202E+01-3.36650E+03-9.85216E+02
 -1       109 6.41487E+00-3.36691E+03-9.86566E+02
 -1       110-7.22569E+00-3.36645E+03-9.86968E+02
 -1       111 8.37416E+00-4.38575E+03-8.32311E+02
 -1       112 5.84133E+01-5.17410E+03-5.62192E+02
 -1       113 9.91769E+00-5.16294E+03-5.62250E+02
 -1       114-3.86335E+01-5.17392E+03-5.63183E+02
 -1       115 1.07722E+01-5.60156E+03-1.95666E+02
 -1       116 7.63671E+01-5.63249E+03 2.27637E+02
 -1       117 1.08331E+01-5.61719E+03 2.27881E+02
 -1       118-5.47630E+01-5.63224E+03 2.28083E+02
 -1       119 9.98782E+00-5.17097E+03 6.74189E+02
 -1       120 6.99798E+01-4.27616E+03 1.10656E+03
 -1       121 8.26283E+00-4.26158E+03 1.10711E+03
 -1       122-5.35121E+01-4.27593E+03 1.10862E+03
 -1       123 5.69979E+00-2.92052E+03 1.49421E+03
 -1       124 4.38597E+01-1.22256E+03 1.81269E+03
 -1       125 2.44458E+00-1.21316E+03 1.81326E+03
 -1       126-3.90160E+01-1.22241E+03 1.81605E+03
 -1       127-1.35879E+00 7.76935E+02 2.04594E+03
 -1       128 1.12732E+01 2.95122E+03 2.19201E+03
 -1       129-5.50067E+00 2.95334E+03 2.19271E+03
 -1       130-2.22981E+01 2.95128E+03 2.19610E+03
 -1       131-9.81875E+00 5.22172E+03 2.25765E+03
 -1       132 8.74399E-01-3.23300E+02-8.76160E-01
 -1       133 2.69715E+01-1.16582E+03-3.76331E+02
 -1       134 2.29179E+00-1.18267E+03-1.57465E+00
 -1       135-2.24021E+01-1.16573E+03 3.73200E+02
 -1       136 4.28813E+00-2.23925E+03-1.85376E+00
 -1       137-7.23282E+00-3.39462E+03-4.66582E+02
 -1       138 6.34499E+00-3.40399E+03-1.85920E+00
 -1       139 1.99211E+01-3.39468E+03 4.62865E+02
 -1       140 8.26499E+00-4.44368E+03-1.56850E+00
 -1       141-3.87034E+01-5.24790E+03-2.63983E+02
 -1       142 9.72961E+00-5.26274E+03-1.05957E+00
 -1       143 5.82044E+01-5.24808E+03 2.61862E+02
 -1       144 1.05562E+01-5.71618E+03-3.68735E-01
 -1       145-5.48885E+01-5.73191E+03 1.18683E+02
 -1       146 1.05857E+01-5.74847E+03 4.29444E-01
 -1       147 7.61171E+01-5.73216E+03-1.17824E+02
 -1       148 9.74476E+00-5.29995E+03 1.27052E+00
 -1       149-5.35963E+01-4.36911E+03 5.47284E+02
 -1       150 8.03099E+00-4.38460E+03 2.08637E+00
 -1       151 6.97129E+01-4.36935E+03-5.43110E+02
 -1       152 5.50375E+00-3.02454E+03 2.81586E+00
 -1       153-3.93092E+01-1.28505E+03 8.94198E+02
 -1       154 2.28622E+00-1.29719E+03 3.41712E+00
 -1       155 4.39168E+01-1.28521E+03-8.87359E+02
 -1       156-1.46414E+00 7.21031E+02 3.85560E+00
 -1       157-2.15141E+01 2.92514E+03 1.08731E+03
 -1       158-5.56561E+00 2.91888E+03 4.13218E+00
 -1       159 1.03908E+01 2.92508E+03-1.07904E+03
 -1       160-9.84039E+00 5.21024E+03 4.25457E+00
 -1       161 6.09263E-01-4.63992E+02 4.64927E+02
 -1       162-2.16727E+01-1.21233E+03 8.30027E+02
 -1       163 2.22876E+00-1.21612E+03 8.35572E+02
 -1       164 2.60665E+01-1.21242E+03 8.31440E+02
 -1       165 4.21988E+00-2.27546E+03 9.83681E+02
 -1       166 2.00202E+01-3.36650E+03 9.85216E+02
 -1       167 6.41487E+00-3.36691E+03 9.86566E+02
 -1       168-7.22569E+00-3.36645E+03 9.86968E+02
 -1       169 8.37416E+00-4.38575E+03 8.32311E+02
 -1       170 5.84133E+01-5.17410E+03 5.62192E+02
 -1       171 9.91769E+00-5.16294E+03 5.62250E+02
 -1       172-3.86335E+01-5.17392E+03 5.63183E+02
 -1       173 1.07722E+01-5.60156E+03 1.95666E+02
 -1       174 7.63671E+01-5.63249E+03-2.27637E+02
 -1       175 1.08331E+01-5.61719E+03-2.27881E+02
 -1       176-5.47630E+01-5.63224E+03-2.28083E+02
 -1       177 9.98782E+00-5.17097E+03-6.74189E+02
 -1       178 6.99798E+01-4.27616E+03-1.10656E+03
 -1       179 8.26283E+00-4.26158E+03-1.10711E+03
 -1       180-5.35121E+01-4.27593E+03-1.10862E+03
 -1       181 5.69979E+00-2.92052E+03-1.49421E+03
 -1       182 4.38597E+01-1.22256E+03-1.81269E+03
 -1       183 2.44458E+00-1.21316E+03-1.81326E+03
 -1       184-3.90160E+01-1.22241E+03-1.81605E+03
 -1       185-1.35879E+00 7.76935E+02-2.04594E+03
 -1       186 1.12732E+01 2.95122E+03-2.19201E+03
 -1       187-5.50067E+00 2.95334E+03-2.19271E+03
 -1       188-2.22981E+01 2.95128E+03-2.19610E+03
 -1       189-9.81875E+00 5.22172E+03-2.25765E+03
 -1       190 8.74399E-01-3.23300E+02 8.76160E-01
 -1       191 2.69715E+01-1.16582E+03 3.76331E+02
 -1       192 2.29179E+00-1.18267E+03 1.57465E+00
 -1       193-2.24021E+01-1.16573E+03-3.73200E+02
 -1       194 4.28813E+00-2.23925E+03 1.85376E+00
 -1       195-7.23282E+00-3.39462E+03 4.66582E+02
 -1       196 6.34499E+00-3.40399E+03 1.85920E+00
 -1       197 1.99211E+01-3.39468E+03-4.62865E+02
 -1       198 8.26499E+00-4.44368E+03 1.56850E+00
 -1       199-3.87034E+01-5.24790E+03 2.63983E+02
 -1       200 9.72961E+00-5.26274E+03 1.05957E+00
 -1       201 5.82044E+01-5.24808E+03-2.61862E+02
 -1       202 1.05562E+01-5.71618E+03 3.68735E-01
 -1       203-5.48885E+01-5.73191E+03-1.18683E+02
 -1       204 1.05857E+01-5.74847E+03-4.29444E-01
 -1       205 7.61171E+01-5.73216E+03 1.17824E+02
 -1       206 9.74476E+00-5.29995E+03-1.27052E+00
 -1       207-5.35963E+01-4.36911E+03-5.47284E+02
 -1       208 8.03099E+00-4.38460E+03-2.08637E+00
 -1       209 6.97129E+01-4.36935E+03 5.43110E+02
 -1       210 5.50375E+00-3.02454E+03-2.81586E+00
 -1       211-3.93092E+01-1.28505E+03-8.94198E+02
 -1       212 2.28622E+00-1.29719E+03-3.41712E+00
 -1       213 4.39168E+01-1.28521E+03 8.87359E+02
 -1       214-1.46414E+00 7.21031E+02-3.85560E+00
 -1       215-2.15141E+01 2.92514E+03-1.08731E+03
 -1       216-5.56561E+00 2.91888E+03-4.13218E+00
 -1       217 1.03908E+01 2.92508E+03 1.07904E+03
 -1       218-9.84039E+00 5.21024E+03-4.25457E+00
 -1       219 7.13569E-01-3.78649E+02-3.29692E-12
 -1       220 2.28679E+00-1.19927E+03-3.90513E+02
 -1       221 2.26003E+00-1.21346E+03 7.35926E-01
 -1       222 2.28911E+00-1.21470E+03-6.59384E-12
 -1       223 2.26003E+00-1.21346E+03-7.35926E-01
 -1       224 2.28679E+00-1.19927E+03 3.90513E+02
 -1       225 4.24219E+00-2.25108E+03-1.15961E-11
 -1       226 6.39423E+00-3.38432E+03-4.75249E+02
 -1       227 6.37780E+00-3.39304E+03 8.95613E-01
 -1       228 6.39118E+00-3.39143E+03-1.40972E-11
 -1       229 6.37780E+00-3.39304E+03-8.95613E-01
 -1       230 6.39423E+00-3.38432E+03 4.75249E+02
 -1       231 8.31693E+00-4.41331E+03-1.77351E-11
 -1       232 9.84987E+00-5.20093E+03-2.69139E+02
 -1       233 9.80121E+00-5.22675E+03 5.07195E-01
 -1       234 9.82706E+00-5.21465E+03-2.41016E-11
 -1       235 9.80121E+00-5.22675E+03-5.07195E-01
 -1       236 9.84987E+00-5.20093E+03 2.69139E+02
 -1       237 1.06630E+01-5.65823E+03-2.86491E-11
 -1       238 1.07398E+01-5.66747E+03 1.16800E+02
 -1       239 1.06804E+01-5.69900E+03-2.20111E-01
 -1       240 1.07102E+01-5.68330E+03-2.63753E-11
 -1       241 1.06804E+01-5.69900E+03 2.20111E-01
 -1       242 1.07398E+01-5.66747E+03-1.16800E+02
 -1       243 9.86588E+00-5.23524E+03-2.54659E-11
 -1       244 8.17532E+00-4.30826E+03 5.47914E+02
 -1       245 8.11896E+00-4.33816E+03-1.03255E+00
 -1       246 8.14682E+00-4.32304E+03-2.45564E-11
 -1       247 8.11896E+00-4.33816E+03 1.03255E+00
 -1       248 8.17532E+00-4.30826E+03-5.47914E+02
 -1       249 5.60164E+00-2.97246E+03-2.41016E-11
 -1       250 2.38463E+00-1.24446E+03 8.95967E+02
 -1       251 2.34520E+00-1.26539E+03-1.68846E+00
 -1       252 2.36457E+00-1.25474E+03-2.31921E-11
 -1       253 2.34520E+00-1.26539E+03 1.68846E+00
 -1       254 2.38463E+00-1.24446E+03-8.95967E+02
 -1       255-1.41052E+00 7.48479E+02-1.54614E-11
 -1       256-5.52262E+00 2.94075E+03 1.08668E+03
 -1       257-5.54187E+00 2.93053E+03-2.04785E+00
 -1       258-5.53196E+00 2.93549E+03-3.18323E-12
 -1       259-5.54187E+00 2.93053E+03 2.04785E+00
 -1       260-5.52262E+00 2.94075E+03-1.08668E+03
 -1       261-9.83200E+00 5.21726E+03 3.18323E-12
 -3
    1PSTEP                         6           1           2          
    1PGM                1.000000E+00                                  
    1PGK                2.056135E+11                                  
    1PHID                         -1                                  
    1PSUBC                         0                                  
    1PMODE                         3                                  
  100CL  104 7.21682E+04         261                     2    4MODAL      1
 -4  STRESS      6    1
 -5  SXX         1    4    1    1
 -5  SYY         1    4    2    2
 -5  SZZ         1    4    3    3
 -5  SXY         1    4    1    2
 -5  SYZ         1    4    2    3
 -5  SZX         1    4    3    1
 -1         1-6.96124E+07-7.67662E+07-2.64153E+08 8.22258E+06-2.86879E+07-3.97766E+07
 -1         2-6.99022E+07-7.70292E+07-2.65150E+08-8.25363E+06-2.88380E+07 3.98850E+07
 -1         3 6.96124E+07 7.67662E+07 2.64153E+08-8.22258E+06-2.86879E+07-3.97766E+07
 -1         4 6.99022E+07 7.70292E+07 2.65150E+08 8.25363E+06-2.88380E+07 3.98850E+07
 -1         5 1.45314E+06-7.45847E+06-3.52061E+06-3.13034E+06 2.28827E+06-8.06660E+05
 -1         6 1.42504E+06-7.45305E+06-3.53390E+06 3.14216E+06 2.28525E+06 7.98042E+05
 -1         7-1.45314E+06 7.45847E+06 3.52061E+06 3.13034E+06 2.28827E+06-8.06660E+05
 -1         8-1.42504E+06 7.45305E+06 3.53390E+06-3.14216E+06 2.28525E+06 7.98042E+05
 -1         9-6.70134E+07-7.40367E+07-2.58220E+08 1.93214E+06-3.76093E+07-1.89451E+07
 -1        10-6.43501E+07-7.12769E+07-2.52250E+08-1.57259E+04-4.65308E+07 3.68540E+03
 -1        11-6.70940E+07-7.41379E+07-2.58682E+08-1.96339E+06-3.76844E+07 1.90030E+07
 -1        12-2.69799E+07-2.15246E+07-1.23068E+08-8.29513E+06-1.53950E+07 1.99953E+07
 -1        13-1.34322E+05-1.21268E+05-4.75367E+05-8.34481E+06-1.95563E+06 8.76878E+04
 -1        14 2.67007E+07 2.12719E+07 1.22094E+08-8.28779E+06-1.53235E+07-1.98534E+07
 -1        15 6.70134E+07 7.40367E+07 2.58220E+08-1.93214E+06-3.76093E+07-1.89451E+07
 -1        16 6.43501E+07 7.12769E+07 2.52250E+08 1.57259E+04-4.65308E+07 3.68540E+03
 -1        17 6.70940E+07 7.41379E+07 2.58682E+08 1.96339E+06-3.76844E+07 1.90030E+07
 -1        18 2.69799E+07 2.15246E+07 1.23068E+08 8.29513E+06-1.53950E+07 1.99953E+07
 -1        19 1.34322E+05 1.21268E+05 4.75367E+05 8.34481E+06-1.95563E+06 8.76878E+04
 -1        20-2.67007E+07-2.12719E+07-1.22094E+08 8.28779E+06-1.53235E+07-1.98534E+07
 -1        21 1.42961E+06-3.88874E+06-4.12530E+06 3.40967E+05 1.01493E+06-7.73910E+05
 -1        22 1.40411E+06-3.22002E+05-4.73038E+06 1.98262E+03-2.57023E+05-1.06581E+04
 -1        23 1.41359E+06-3.88903E+06-4.13234E+06-3.33074E+05 1.01481E+06 7.58942E+05
 -1        24-8.38279E+04-4.24608E+06-1.87510E+06 2.09352E+06 3.96974E+06 3.01460E+04
 -1        25-6.06817E+02 2.64606E+03-8.91446E+03 1.05206E+06 5.65561E+06 4.84362E+02
 -1        26 6.91706E+04 4.25144E+06 1.85954E+06 2.09479E+06 3.97263E+06-3.39711E+04
 -1        27-1.42961E+06 3.88874E+06 4.12530E+06-3.40967E+05 1.01493E+06-7.73910E+05
 -1        28-1.40411E+06 3.22002E+05 4.73038E+06-1.98262E+03-2.57023E+05-1.06581E+04
 -1        29-1.41359E+06 3.88903E+06 4.13234E+06 3.33074E+05 1.01481E+06 7.58942E+05
 -1        30 8.38279E+04 4.24608E+06 1.87510E+06-2.09352E+06 3.96974E+06 3.01460E+04
 -1        31 6.06817E+02-2.64606E+03 8.91446E+03-1.05206E+06 5.65561E+06 4.84362E+02
 -1        32-6.91706E+04-4.25144E+06-1.85954E+06-2.09479E+06 3.97263E+06-3.39711E+04
 -1        33-1.72366E+07-2.31291E+07-1.79250E+08-4.47872E+06-1.22297E+07 6.19394E+06
 -1        34 1.56341E+07 1.75782E+07-9.83622E+07 2.37892E+06-4.24079E+06-1.08227E+07
 -1        35 1.77569E+05 4.10659E+06-3.37898E+07 1.69471E+06-6.40157E+06-7.01874E+04
 -1        36 6.60510E+05-1.32149E+06 3.51133E+07-1.29064E+06-5.06287E+06-3.05035E+06
 -1        37-7.52317E+05-1.42732E+06 8.64944E+07-2.66114E+05-5.74290E+06-1.04579E+06
 -1        38 8.50986E+05 2.09068E+06 1.39138E+08 2.30107E+05-3.28220E+06-1.24633E+06
 -1        39 1.82058E+05 8.71174E+05 1.63988E+08 1.83328E+05-2.54866E+06-5.24829E+05
 -1        40 8.18814E+04 5.50109E+05 1.88061E+08-6.92113E+04-7.12672E+05-2.91338E+05
 -1        41 3.20958E+04 4.08387E+05 1.82729E+08 4.02384E+04 4.72855E+05 1.42940E+05
 -1        42 1.07824E+05 6.59031E+05 1.76407E+08 1.96780E+03 1.94503E+06 4.93766E+05
 -1        43 1.08260E+05 3.10453E+05 1.47231E+08 9.53005E+04 2.75030E+06 7.29078E+05
 -1        44 9.61391E+04 6.95573E+02 1.17135E+08 1.04310E+05 3.23857E+06 9.78877E+05
 -1        45-1.80900E+05 1.28038E+05 7.98523E+07-1.90606E+05 3.83488E+06 8.28437E+05
 -1        46-3.38654E+05 1.50913E+06 4.22147E+07-7.98828E+05 3.39392E+06 7.99826E+05
 -1        47 5.23969E+05-2.44306E+06 1.81112E+07 9.22753E+05 1.86740E+06 9.49708E+05
 -1        48 5.33180E+05-2.44505E+06 1.80431E+07-9.19282E+05 1.87099E+06-9.56754E+05
 -1        49-3.44344E+05 1.51042E+06 4.20559E+07 7.95823E+05 3.39696E+06-8.12623E+05
 -1        50-1.81384E+05 1.28720E+05 7.95519E+07 1.89889E+05 3.83803E+06-8.42897E+05
 -1        51 9.61372E+04 3.33226E+02 1.16695E+08-1.03917E+05 3.24229E+06-9.91090E+05
 -1        52 1.07091E+05 3.10047E+05 1.46677E+08-9.49420E+04 2.75306E+06-7.39449E+05
 -1        53 1.05341E+05 6.58629E+05 1.75743E+08-1.96039E+03 1.94690E+06-5.01101E+05
 -1        54 3.05568E+04 4.08269E+05 1.82041E+08-4.00870E+04 4.73397E+05-1.44723E+05
 -1        55 7.98086E+04 5.49804E+05 1.87354E+08 6.89509E+04-7.13775E+05 2.94026E+05
 -1        56 1.78776E+05 8.70494E+05 1.63371E+08-1.82639E+05-2.55065E+06 5.34439E+05
 -1        57 8.43113E+05 2.08748E+06 1.38615E+08-2.29241E+05-3.28692E+06 1.25871E+06
 -1        58-7.46942E+05-1.42449E+06 8.61690E+07 2.65113E+05-5.74688E+06 1.06744E+06
 -1        59 6.65496E+05-1.32399E+06 3.49812E+07 1.28579E+06-5.07440E+06 3.06945E+06
 -1        60 1.62092E+05 4.10595E+06-3.36627E+07-1.68833E+06-6.40188E+06 9.43156E+04
 -1        61 1.55679E+07 1.75194E+07-9.79922E+07-2.36997E+06-4.28161E+06 1.08388E+07
 -1        62-1.71495E+07-2.30643E+07-1.78576E+08 4.46187E+06-1.22064E+07-6.14789E+06
 -1        63 1.71495E+07 2.30643E+07 1.78576E+08-4.46187E+06-1.22064E+07-6.14789E+06
 -1        64-1.55679E+07-1.75194E+07 9.79922E+07 2.36997E+06-4.28161E+06 1.08388E+07
 -1        65-1.62092E+05-4.10595E+06 3.36627E+07 1.68833E+06-6.40188E+06 9.43156E+04
 -1        66-6.65496E+05 1.32399E+06-3.49812E+07-1.28579E+06-5.07440E+06 3.06945E+06
 -1        67 7.46942E+05 1.42449E+06-8.61690E+07-2.65113E+05-5.74688E+06 1.06744E+06
 -1        68-8.43113E+05-2.08748E+06-1.38615E+08 2.29241E+05-3.28692E+06 1.25871E+06
 -1        69-1.78776E+05-8.70494E+05-1.63371E+08 1.82639E+05-2.55065E+06 5.34439E+05
 -1        70-7.98086E+04-5.49804E+05-1.87354E+08-6.89509E+04-7.13775E+05 2.94026E+05
 -1        71-3.05568E+04-4.08269E+05-1.82041E+08 4.00870E+04 4.73397E+05-1.44723E+05
 -1        72-1.05341E+05-6.58629E+05-1.75743E+08 1.96039E+03 1.94690E+06-5.01101E+05
 -1        73-1.07091E+05-3.10047E+05-1.46677E+08 9.49420E+04 2.75306E+06-7.39449E+05
 -1        74-9.61372E+04-3.33226E+02-1.16695E+08 1.03917E+05 3.24229E+06-9.91090E+05
 -1        75 1.81384E+05-1.28720E+05-7.95519E+07-1.89889E+05 3.83803E+06-8.42897E+05
 -1        76 3.44344E+05-1.51042E+06-4.20559E+07-7.95823E+05 3.39696E+06-8.12623E+05
 -1        77-5.33180E+05 2.44505E+06-1.80431E+07 9.19282E+05 1.87099E+06-9.56754E+05
 -1        78 1.72366E+07 2.31291E+07 1.79250E+08 4.47872E+06-1.22297E+07 6.19394E+06
 -1        79-1.56341E+07-1.75782E+07 9.83622E+07-2.37892E+06-4.24079E+06-1.08227E+07
 -1        80-1.77569E+05-4.10659E+06 3.37898E+07-1.69471E+06-6.40157E+06-7.01874E+04
 -1        81-6.60510E+05 1.32149E+06-3.51133E+07 1.29064E+06-5.06287E+06-3.05035E+06
 -1        82 7.52317E+05 1.42732E+06-8.64944E+07 2.66114E+05-5.74290E+06-1.04579E+06
 -1        83-8.50986E+05-2.09068E+06-1.39138E+08-2.30107E+05-3.28220E+06-1.24633E+06
 -1        84-1.82058E+05-8.71174E+05-1.63988E+08-1.83328E+05-2.54866E+06-5.24829E+05
 -1        85-8.18814E+04-5.50109E+05-1.88061E+08 6.92113E+04-7.12672E+05-2.91338E+05
 -1        86-3.20958E+04-4.08387E+05-1.82729E+08-4.02384E+04 4.72855E+05 1.42940E+05
 -1        87-1.07824E+05-6.59031E+05-1.76407E+08-1.96780E+03 1.94503E+06 4.93766E+05
 -1        88-1.08260E+05-3.10453E+05-1.47231E+08-9.53005E+04 2.75030E+06 7.29078E+05
 -1        89-9.61391E+04-6.95573E+02-1.17135E+08-1.04310E+05 3.23857E+06 9.78877E+05
 -1        90 1.80900E+05-1.28038E+05-7.98523E+07 1.90606E+05 3.83488E+06 8.28437E+05
 -1        91 3.38654E+05-1.50913E+06-4.22147E+07 7.98828E+05 3.39392E+06 7.99826E+05
 -1        92-5.23969E+05 2.44306E+06-1.81112E+07-9.22753E+05 1.86740E+06 9.49708E+05
 -1        93-2.42399E+07-1.85839E+07-1.16727E+08-3.87154E+03-3.27903E+07 1.97925E+04
 -1        94 3.50216E+04 4.56803E+04 2.19974E+05 2.05440E+06-1.05027E+07 6.17937E+04
 -1        95-6.14673E-08 1.67638E-07-1.37184E-06-9.70904E-08-1.90498E+07 3.58996E+04
 -1        96-3.50216E+04-4.56803E+04-2.19974E+05-2.05440E+06-1.05027E+07 6.17937E+04
 -1        97 2.42399E+07 1.85839E+07 1.16727E+08 3.87154E+03-3.27903E+07 1.97925E+04
 -1        98-1.30847E+03-5.87628E+05-2.25374E+06 1.93821E+03 1.25231E+06-7.93121E+03
 -1        99 1.10739E+03 2.46583E+00 4.24720E+03-1.02849E+06 4.20863E+06-2.36000E+03
 -1       100-1.09593E-06-7.75116E-06-7.74686E-07 2.45028E-06 2.76165E+06-5.20436E+03
 -1       101-1.10739E+03-2.46585E+00-4.24720E+03 1.02849E+06 4.20863E+06-2.36000E+03
 -1       102 1.30847E+03 5.87628E+05 2.25374E+06-1.93821E+03 1.25231E+06-7.93121E+03
 -1       103-2.03340E+07-2.42156E+07-1.85534E+08-9.49869E+03-1.66486E+07 6.21887E+04
 -1       104 1.36719E+07 1.70999E+07-1.01324E+08-3.95516E+05-8.21912E+05 6.17351E+06
 -1       105 1.17536E+07 1.66720E+07-1.04662E+08 3.33543E+03 2.63686E+06 9.99820E+04
 -1       106 1.36827E+07 1.71209E+07-1.01515E+08 4.03326E+05-8.02426E+05-6.06550E+06
 -1       107 4.87095E+05 5.22558E+06-3.10586E+07 3.09160E+03-4.02835E+06 8.22722E+04
 -1       108 1.53165E+05-1.99824E+06 3.39967E+07 7.26365E+04-4.24363E+06 2.36832E+06
 -1       109-3.48993E+05-2.66884E+06 3.30141E+07-2.45225E+03-3.41380E+06 7.69675E+04
 -1       110 1.60845E+05-1.99334E+06 3.40647E+07-7.75164E+04-4.23881E+06-2.28180E+06
 -1       111-2.67022E+05-1.34304E+06 8.78318E+07-3.90496E+02-3.91615E+06 6.05928E+04
 -1       112 9.43384E+05 1.97666E+06 1.39164E+08 8.96010E+02-2.73764E+06 1.18628E+06
 -1       113 1.04406E+06 1.86522E+06 1.39711E+08 6.36031E+02-2.18898E+06 4.88155E+04
 -1       114 9.47726E+05 1.97764E+06 1.39423E+08 1.72845E+02-2.73590E+06-1.13127E+06
 -1       115 7.09239E+05 9.42579E+05 1.65194E+08 4.93189E+02-1.68425E+06 2.94149E+04
 -1       116 2.99992E+05 4.54844E+05 1.88209E+08-2.89451E+04-5.87758E+05 2.61366E+05
 -1       117 5.22571E+05 3.60002E+05 1.89062E+08 9.35920E+01-4.61883E+05 1.16699E+04
 -1       118 3.03424E+05 4.55116E+05 1.88561E+08 2.89086E+04-5.87348E+05-2.48352E+05
 -1       119 5.24392E+05 4.26427E+05 1.83718E+08 2.03350E+02 2.92883E+05-5.86042E+03
 -1       120 2.97122E+05 5.93799E+05 1.76472E+08-3.26837E+04 1.62895E+06-5.12268E+05
 -1       121 4.90225E+05 5.28855E+05 1.77199E+08 2.19873E+02 1.31130E+06-2.28400E+04
 -1       122 2.99686E+05 5.93886E+05 1.76802E+08 3.29073E+04 1.62832E+06 4.85761E+05
 -1       123 3.53773E+05 3.87106E+05 1.47729E+08 2.12206E+02 1.79134E+06-3.31585E+04
 -1       124 1.25202E+05 7.82582E+04 1.16999E+08 8.65318E+04 2.81517E+06-9.82377E+05
 -1       125 1.55413E+05 1.56366E+05 1.17304E+08 1.20363E+02 2.38861E+06-4.35716E+04
 -1       126 1.26349E+05 7.86221E+04 1.17219E+08-8.62152E+04 2.81387E+06 9.32699E+05
 -1       127-1.60211E+05-1.88680E+05 7.95200E+07-2.04019E+02 2.42351E+06-4.11304E+04
 -1       128-4.75893E+05 6.60814E+05 4.17480E+07-8.22013E+04 2.84197E+06-8.47158E+05
 -1       129-6.08506E+05-1.88407E+05 4.14408E+07-5.07092E+02 2.28759E+06-3.97542E+04
 -1       130-4.74111E+05 6.60551E+05 4.18281E+07 8.01916E+04 2.84106E+06 8.01006E+05
 -1       131 2.22079E+05-3.08614E+05 1.71770E+07 6.67170E+02 9.35448E+05-2.65366E+04
 -1       132-4.56346E+04-3.83196E+04-3.49641E+05-5.04040E+06-3.29999E+07 3.13746E+04
 -1       133 5.60600E+06 2.87325E+06-5.09286E+07 2.07294E+06-2.86464E+07-5.16866E+06
 -1       134 3.14186E+04 2.21498E+04-1.97238E+05 1.76992E+06-5.30546E+07-4.96920E+03
 -1       135-5.54151E+06-2.82170E+06 5.05463E+07 2.07143E+06-2.86694E+07 5.17172E+06
 -1       136 9.84766E+03 9.17936E+02-5.85304E+04 1.64053E+06-4.36570E+07 7.59147E+03
 -1       137 1.29834E+06 2.03805E+06 1.81021E+07-1.29488E+06-2.29510E+07-1.27074E+06
 -1       138-5.02945E+03-6.57682E+02 6.22155E+04-1.30126E+06-4.08421E+07 6.43335E+03
 -1       139-1.30586E+06-2.03745E+06-1.79738E+07-1.29460E+06-2.29598E+07 1.28672E+06
 -1       140-2.53098E+03-5.03206E+02 1.65520E+05-2.07213E+05-3.21531E+07 7.38003E+03
 -1       141 2.63149E+05 1.15377E+06 6.90109E+07 2.83588E+05-1.45919E+07-4.56706E+05
 -1       142 3.51503E+03 1.96754E+03 2.63286E+05 3.37505E+05-2.59035E+07 4.12517E+03
 -1       143-2.55697E+05-1.15021E+06-6.84859E+07 2.83590E+05-1.45962E+07 4.67021E+05
 -1       144 1.77630E+03 1.33657E+03 3.11311E+05 2.61706E+05-1.56088E+07 3.17399E+03
 -1       145 7.30530E+04 9.10956E+05 9.36362E+07-9.65414E+03-3.45240E+06-1.07787E+05
 -1       146 6.78429E+02 9.84791E+02 3.56289E+05 4.96638E+04-6.19253E+06 8.70423E+02
 -1       147-7.13382E+04-9.09819E+05-9.29261E+07-9.76317E+03-3.45336E+06 1.10001E+05
 -1       148 8.03608E+02 9.88223E+02 3.46218E+05 1.07906E+05 3.10978E+06-5.51941E+02
 -1       149 2.42619E+04 6.80853E+05 8.78635E+07 5.93808E+04 7.03197E+06 1.63597E+05
 -1       150 9.96634E+02 9.23835E+02 3.33933E+05 1.16674E+05 1.21199E+07-2.47115E+03
 -1       151-2.20237E+04-6.79729E+05-8.71978E+07 5.92572E+04 7.03385E+06-1.69736E+05
 -1       152 7.29506E+02 6.66690E+02 2.78397E+05 1.12605E+05 1.75953E+07-3.37581E+03
 -1       153 9.67098E+04 3.04786E+05 5.86309E+07 8.38288E+04 1.31789E+07 3.41068E+05
 -1       154 2.94673E+02 2.92878E+02 2.21060E+05 6.38694E+04 2.31209E+07-4.50137E+03
 -1       155-9.64142E+04-3.04312E+05-5.81895E+07 8.41543E+04 1.31825E+07-3.51676E+05
 -1       156-3.55569E+02-3.01920E+02 1.49856E+05-1.08261E+05 2.18255E+07-4.56714E+03
 -1       157-6.83737E+04 4.71821E+05 2.13135E+07-5.33052E+05 1.22438E+07 2.34957E+05
 -1       158-3.55055E+02-1.14674E+03 7.80957E+04-2.69084E+05 2.10952E+07-4.31100E+03
 -1       159 7.08639E+04-4.73611E+05-2.11560E+07-5.33358E+05 1.22469E+07-2.45666E+05
 -1       160-5.81587E+02 4.18510E+02 3.23702E+04 3.54028E+05 1.40814E+07-1.76286E+03
 -1       161 2.03340E+07 2.42156E+07 1.85534E+08 9.49869E+03-1.66486E+07 6.21887E+04
 -1       162-1.36719E+07-1.70999E+07 1.01324E+08 3.95516E+05-8.21912E+05 6.17351E+06
 -1       163-1.17536E+07-1.66720E+07 1.04662E+08-3.33543E+03 2.63686E+06 9.99820E+04
 -1       164-1.36827E+07-1.71209E+07 1.01515E+08-4.03326E+05-8.02426E+05-6.06550E+06
 -1       165-4.87095E+05-5.22558E+06 3.10586E+07-3.09160E+03-4.02835E+06 8.22722E+04
 -1       166-1.53165E+05 1.99824E+06-3.39967E+07-7.26365E+04-4.24363E+06 2.36832E+06
 -1       167 3.48993E+05 2.66884E+06-3.30141E+07 2.45225E+03-3.41380E+06 7.69675E+04
 -1       168-1.60845E+05 1.99334E+06-3.40647E+07 7.75164E+04-4.23881E+06-2.28180E+06
 -1       169 2.67022E+05 1.34304E+06-8.78318E+07 3.90496E+02-3.91615E+06 6.05928E+04
 -1       170-9.43384E+05-1.97666E+06-1.39164E+08-8.96010E+02-2.73764E+06 1.18628E+06
 -1       171-1.04406E+06-1.86522E+06-1.39711E+08-6.36031E+02-2.18898E+06 4.88155E+04
 -1       172-9.47726E+05-1.97764E+06-1.39423E+08-1.72845E+02-2.73590E+06-1.13127E+06
 -1       173-7.09239E+05-9.42579E+05-1.65194E+08-4.93189E+02-1.68425E+06 2.94149E+04
 -1       174-2.99992E+05-4.54844E+05-1.88209E+08 2.89451E+04-5.87758E+05 2.61366E+05
 -1       175-5.22571E+05-3.60002E+05-1.89062E+08-9.35920E+01-4.61883E+05 1.16699E+04
 -1       176-3.03424E+05-4.55116E+05-1.88561E+08-2.89086E+04-5.87348E+05-2.48352E+05
 -1       177-5.24392E+05-4.26427E+05-1.83718E+08-2.03350E+02 2.92883E+05-5.86042E+03
 -1       178-2.97122E+05-5.93799E+05-1.76472E+08 3.26837E+04 1.62895E+06-5.12268E+05
 -1       179-4.90225E+05-5.28855E+05-1.77199E+08-2.19873E+02 1.31130E+06-2.28400E+04
 -1       180-2.99686E+05-5.93886E+05-1.76802E+08-3.29073E+04 1.62832E+06 4.85761E+05
 -1       181-3.53773E+05-3.87106E+05-1.47729E+08-2.12206E+02 1.79134E+06-3.31585E+04
 -1       182-1.25202E+05-7.82582E+04-1.16999E+08-8.65318E+04 2.81517E+06-9.82377E+05
 -1       183-1.55413E+05-1.56366E+05-1.17304E+08-1.20363E+02 2.38861E+06-4.35716E+04
 -1       184-1.26349E+05-7.86221E+04-1.17219E+08 8.62152E+04 2.81387E+06 9.32699E+05
 -1       185 1.60211E+05 1.88680E+05-7.95200E+07 2.04019E+02 2.42351E+06-4.11304E+04
 -1       186 4.75893E+05-6.60814E+05-4.17480E+07 8.22013E+04 2.84197E+06-8.47158E+05
 -1       187 6.08506E+05 1.88407E+05-4.14408E+07 5.07092E+02 2.28759E+06-3.97542E+04
 -1       188 4.74111E+05-6.60551E+05-4.18281E+07-8.01916E+04 2.84106E+06 8.01006E+05
 -1       189-2.22079E+05 3.08614E+05-1.71770E+07-6.67170E+02 9.35448E+05-2.65366E+04
 -1       190 4.56346E+04 3.83196E+04 3.49641E+05 5.04040E+06-3.29999E+07 3.13746E+04
 -1       191-5.60600E+06-2.87325E+06 5.09286E+07-2.07294E+06-2.86464E+07-5.16866E+06
 -1       192-3.14186E+04-2.21498E+04 1.97238E+05-1.76992E+06-5.30546E+07-4.96920E+03
 -1       193 5.54151E+06 2.82170E+06-5.05463E+07-2.07143E+06-2.86694E+07 5.17172E+06
 -1       194-9.84766E+03-9.17936E+02 5.85304E+04-1.64053E+06-4.36570E+07 7.59147E+03
 -1       195-1.29834E+06-2.03805E+06-1.81021E+07 1.29488E+06-2.29510E+07-1.27074E+06
 -1       196 5.02945E+03 6.57682E+02-6.22155E+04 1.30126E+06-4.08421E+07 6.43335E+03
 -1       197 1.30586E+06 2.03745E+06 1.79738E+07 1.29460E+06-2.29598E+07 1.28672E+06
 -1       198 2.53098E+03 5.03206E+02-1.65520E+05 2.07213E+05-3.21531E+07 7.38003E+03
 -1       199-2.63149E+05-1.15377E+06-6.90109E+07-2.83588E+05-1.45919E+07-4.56706E+05
 -1       200-3.51503E+03-1.96754E+03-2.63286E+05-3.37505E+05-2.59035E+07 4.12517E+03
 -1       201 2.55697E+05 1.15021E+06 6.84859E+07-2.83590E+05-1.45962E+07 4.67021E+05
 -1       202-1.77630E+03-1.33657E+03-3.11311E+05-2.61706E+05-1.56088E+07 3.17399E+03
 -1       203-7.30530E+04-9.10956E+05-9.36362E+07 9.65414E+03-3.45240E+06-1.07787E+05
 -1       204-6.78429E+02-9.84791E+02-3.56289E+05-4.96638E+04-6.19253E+06 8.70423E+02
 -1       205 7.13382E+04 9.09819E+05 9.29261E+07 9.76317E+03-3.45336E+06 1.10001E+05
 -1       206-8.03608E+02-9.88223E+02-3.46218E+05-1.07906E+05 3.10978E+06-5.51941E+02
 -1       207-2.42619E+04-6.80853E+05-8.78635E+07-5.93808E+04 7.03197E+06 1.63597E+05
 -1       208-9.96634E+02-9.23835E+02-3.33933E+05-1.16674E+05 1.21199E+07-2.47115E+03
 -1       209 2.20237E+04 6.79729E+05 8.71978E+07-5.92572E+04 7.03385E+06-1.69736E+05
 -1       210-7.29506E+02-6.66690E+02-2.78397E+05-1.12605E+05 1.75953E+07-3.37581E+03
 -1       211-9.67098E+04-3.04786E+05-5.86309E+07-8.38288E+04 1.31789E+07 3.41068E+05
 -1       212-2.94673E+02-2.92878E+02-2.21060E+05-6.38694E+04 2.31209E+07-4.50137E+03
 -1       213 9.64142E+04 3.04312E+05 5.81895E+07-8.41543E+04 1.31825E+07-3.51676E+05
 -1       214 3.55569E+02 3.01920E+02-1.49856E+05 1.08261E+05 2.18255E+07-4.56714E+03
 -1       215 6.83737E+04-4.71821E+05-2.13135E+07 5.33052E+05 1.22438E+07 2.34957E+05
 -1       216 3.55055E+02 1.14674E+03-7.80957E+04 2.69084E+05 2.10952E+07-4.31100E+03
 -1       217-7.08639E+04 4.73611E+05 2.11560E+07 5.33358E+05 1.22469E+07-2.45666E+05
 -1       218 5.81587E+02-4.18510E+02-3.23702E+04-3.54028E+05 1.40814E+07-1.76286E+03
 -1       219-7.47386E-07-9.93256E-07-1.70805E-06-1.62923E-07-3.41389E+07 6.43351E+04
 -1       220 3.49300E+06 2.16985E+06-5.42644E+07-3.76311E+02-1.93860E+07 8.90088E+04
 -1       221-4.08910E+03-6.58259E+03 1.02262E+05 1.99686E+05-4.72318E+07 3.65332E+04
 -1       222-1.16997E-06-1.33831E-06-2.45776E-06-2.77767E-07-4.14089E+07 7.80356E+04
 -1       223 4.08910E+03 6.58259E+03-1.02262E+05-1.99686E+05-4.72318E+07 3.65332E+04
 -1       224-3.49300E+06-2.16985E+06 5.42644E+07 3.76311E+02-1.93860E+07 8.90088E+04
 -1       225-4.26779E-07-1.49221E-06-1.78220E-06 1.62865E-07-3.53217E+07 6.65643E+04
 -1       226 9.28743E+05 1.63383E+06 1.71944E+07-1.69517E+02-1.81640E+07 6.94974E+04
 -1       227-3.07896E+03-1.75023E+03-3.24030E+04 8.99528E+04-3.68782E+07 3.42303E+04
 -1       228 1.22956E-07-1.37844E-06-2.02970E-07 4.80242E-07-3.29143E+07 6.20273E+04
 -1       229 3.07896E+03 1.75023E+03 3.24030E+04-8.99528E+04-3.68782E+07 3.42303E+04
 -1       230-9.28743E+05-1.63383E+06-1.71944E+07 1.69517E+02-1.81640E+07 6.94974E+04
 -1       231 1.03906E-06-1.66474E-06-1.09896E-06 5.42626E-07-2.54714E+07 4.80011E+04
 -1       232 3.57948E+05 9.30970E+05 6.92746E+07 2.05730E+02-1.14301E+07 4.38852E+04
 -1       233-1.75442E+03-6.74558E+02-1.30549E+05-1.09169E+05-2.32873E+07 2.15401E+04
 -1       234 1.61905E-06-2.13695E-06-2.63832E-06 4.95547E-07-2.06711E+07 3.89550E+04
 -1       235 1.75442E+03 6.74558E+02 1.30549E+05 1.09169E+05-2.32873E+07 2.15401E+04
 -1       236-3.57948E+05-9.30970E+05-6.92746E+07-2.05730E+02-1.14301E+07 4.38852E+04
 -1       237 1.77468E-06-6.49114E-06-1.87696E-06-7.78480E-07-1.24220E+07 2.34094E+04
 -1       238 3.25753E+05 7.72335E+05 9.41104E+07 2.81061E+02-2.72177E+06 1.05290E+04
 -1       239-1.45548E+03-6.13886E+02-1.77352E+05-1.49143E+05-5.58710E+06 5.12921E+03
 -1       240 3.50932E-06-9.90974E-06-1.02818E-06-1.84096E-06-4.98166E+06 9.38800E+03
 -1       241 1.45548E+03 6.13886E+02 1.77352E+05 1.49143E+05-5.58710E+06 5.12921E+03
 -1       242-3.25753E+05-7.72335E+05-9.41104E+07-2.81061E+02-2.72177E+06 1.05290E+04
 -1       243 4.87309E-06 4.89410E-07 8.06525E-07-1.15181E-06 2.45690E+06-4.63005E+03
 -1       244 2.25639E+05 5.41052E+05 8.82018E+07 2.09772E+02 5.44981E+06-2.04547E+04
 -1       245-1.01962E+03-4.25219E+02-1.66217E+05-1.11314E+05 1.08541E+07-1.02702E+04
 -1       246 4.23674E-06 7.10275E-06 2.31422E-06-8.79831E-07 9.58832E+06-1.80693E+04
 -1       247 1.01962E+03 4.25219E+02 1.66217E+05 1.11314E+05 1.08541E+07-1.02702E+04
 -1       248-2.25639E+05-5.41052E+05-8.82018E+07-2.09772E+02 5.44981E+06-2.04547E+04
 -1       249 4.02315E-06 4.41008E-06 1.38243E-06-9.03929E-08 1.39405E+07-2.62711E+04
 -1       250 8.12923E+04 2.66545E+05 5.85713E+07 1.52304E+02 1.03175E+07-3.89785E+04
 -1       251-5.02307E+02-1.53196E+02-1.10378E+05-8.08191E+04 2.06836E+07-1.94434E+04
 -1       252 4.84559E-06 3.87715E-06 1.52644E-06 8.90232E-07 1.82463E+07-3.43854E+04
 -1       253 5.02307E+02 1.53196E+02 1.10378E+05 8.08191E+04 2.06836E+07-1.94434E+04
 -1       254-8.12923E+04-2.66545E+05-5.85713E+07-1.52304E+02 1.03175E+07-3.89785E+04
 -1       255 1.04208E-05 5.02545E-06 5.57001E-06 1.62684E-06 1.73707E+07-3.27353E+04
 -1       256-1.45924E+05-2.78514E+05 2.09814E+07-5.55965E+02 9.59105E+06-3.57961E+04
 -1       257 5.24862E+02 2.74995E+02-3.95397E+04 2.95018E+05 1.89949E+07-1.80744E+04
 -1       258 1.58574E-05 6.72233E-06 5.79446E-06 2.00514E-06 1.68945E+07-3.18379E+04
 -1       259-5.24862E+02-2.74995E+02 3.95397E+04-2.95018E+05 1.89949E+07-1.80744E+04
 -1       260 1.45924E+05 2.78514E+05-2.09814E+07 5.55965E+02 9.59105E+06-3.57961E+04
 -1       261 7.48601E-06-1.37152E-07 9.41684E-07 1.90048E-06 1.01949E+07-1.92123E+04
 -3
    1PSTEP                         7           1           2          
    1PGM                1.000000E+00                                  
    1PGK                2.056135E+11                                  
    1PHID                         -1                                  
    1PSUBC                         0                                  
    1PMODE                         4                                  
  100CL  105 7.21682E+04         261                     2    5MODAL      1
 -4  DISP        4    1
 -5  D1          1    2    1    0
 -5  D2          1    2    2    0
 -5  D3          1    2    3    0
 -5  ALL         1    2    0    0    1ALL
 -1         1 0.00000E+00 0.00000E+00 0.00000E+00
 -1         2 0.00000E+00 0.00000E+00 0.00000E+00
 -1         3 0.00000E+00 0.00000E+00 0.00000E+00
 -1         4 0.00000E+00 0.00000E+00 0.00000E+00
 -1         5 7.51195E+03 4.85503E+00 2.28662E+03
 -1         6 7.51198E+03 2.34578E+01-2.27801E+03
 -1         7 7.51195E+03 4.85503E+00-2.28662E+03
 -1         8 7.51198E+03 2.34578E+01 2.27801E+03
 -1         9 0.00000E+00 0.00000E+00 0.00000E+00
 -1        10 0.00000E+00 0.00000E+00 0.00000E+00
 -1        11 0.00000E+00 0.00000E+00 0.00000E+00
 -1        12 0.00000E+00 0.00000E+00 0.00000E+00
 -1        13 0.00000E+00 0.00000E+00 0.00000E+00
 -1        14 0.00000E+00 0.00000E+00 0.00000E+00
 -1        15 0.00000E+00 0.00000E+00 0.00000E+00
 -1        16 0.00000E+00 0.00000E+00 0.00000E+00
 -1        17 0.00000E+00 0.00000E+00 0.00000E+00
 -1        18 0.00000E+00 0.00000E+00 0.00000E+00
 -1        19 0.00000E+00 0.00000E+00 0.00000E+00
 -1        20 0.00000E+00 0.00000E+00 0.00000E+00
 -1        21 7.51224E+03 1.38424E+01 1.13740E+03
 -1        22 7.50244E+03 1.41532E+01 4.28233E+00
 -1        23 7.51226E+03 1.44593E+01-1.12881E+03
 -1        24 7.50901E+03 1.82802E+01-2.27692E+03
 -1        25 7.51025E+03 1.41384E+01-2.27238E+03
 -1        26 7.50900E+03 1.00336E+01-2.28119E+03
 -1        27 7.51224E+03 1.38424E+01-1.13740E+03
 -1        28 7.50244E+03 1.41532E+01-4.28233E+00
 -1        29 7.51226E+03 1.44593E+01 1.12881E+03
 -1        30 7.50901E+03 1.82802E+01 2.27692E+03
 -1        31 7.51025E+03 1.41384E+01 2.27238E+03
 -1        32 7.50900E+03 1.00336E+01 2.28119E+03
 -1        33-4.05190E+02 1.40382E+02 4.70146E+02
 -1        34-1.17962E+03 4.64913E+01 8.11648E+02
 -1        35-2.26634E+03 2.10369E+01 9.73734E+02
 -1        36-3.37552E+03-3.36079E+01 9.73156E+02
 -1        37-4.41862E+03-7.08897E+01 8.23229E+02
 -1        38-5.20929E+03-1.06872E+02 5.54869E+02
 -1        39-5.66165E+03-1.29152E+02 1.91606E+02
 -1        40-5.68173E+03-1.41892E+02-2.28999E+02
 -1        41-5.23759E+03-1.41755E+02-6.72045E+02
 -1        42-4.32227E+03-1.31687E+02-1.10243E+03
 -1        43-2.97427E+03-1.11294E+02-1.48696E+03
 -1        44-1.25286E+03-8.51760E+01-1.80556E+03
 -1        45 7.47075E+02-5.56224E+01-2.03600E+03
 -1        46 2.94106E+03-2.82878E+01-2.18504E+03
 -1        47 5.21291E+03 1.56001E+00-2.24897E+03
 -1        48 5.21294E+03 1.80876E+01 2.25747E+03
 -1        49 2.94119E+03 3.93730E+01 2.19329E+03
 -1        50 7.47290E+02 5.84385E+01 2.04369E+03
 -1        51-1.25255E+03 8.04545E+01 1.81238E+03
 -1        52-2.97387E+03 1.00085E+02 1.49258E+03
 -1        53-4.32181E+03 1.15397E+02 1.10659E+03
 -1        54-5.23710E+03 1.22016E+02 6.74582E+02
 -1        55-5.68124E+03 1.20478E+02 2.29864E+02
 -1        56-5.66120E+03 1.07814E+02-1.92330E+02
 -1        57-5.20893E+03 8.72385E+01-5.56964E+02
 -1        58-4.41839E+03 5.42362E+01-8.26337E+02
 -1        59-3.37541E+03 2.08857E+01-9.76831E+02
 -1        60-2.26644E+03-2.95790E+01-9.77410E+02
 -1        61-1.17981E+03-5.09377E+01-8.14713E+02
 -1        62-4.05722E+02-1.41910E+02-4.71921E+02
 -1        63-4.05722E+02-1.41910E+02 4.71921E+02
 -1        64-1.17981E+03-5.09377E+01 8.14713E+02
 -1        65-2.26644E+03-2.95790E+01 9.77410E+02
 -1        66-3.37541E+03 2.08857E+01 9.76831E+02
 -1        67-4.41839E+03 5.42362E+01 8.26337E+02
 -1        68-5.20893E+03 8.72385E+01 5.56964E+02
 -1        69-5.66120E+03 1.07814E+02 1.92330E+02
 -1        70-5.68124E+03 1.20478E+02-2.29864E+02
 -1        71-5.23710E+03 1.22016E+02-6.74582E+02
 -1        72-4.32181E+03 1.15397E+02-1.10659E+03
 -1        73-2.97387E+03 1.00085E+02-1.49258E+03
 -1        74-1.25255E+03 8.04545E+01-1.81238E+03
 -1        75 7.47290E+02 5.84385E+01-2.04369E+03
 -1        76 2.94119E+03 3.93730E+01-2.19329E+03
 -1        77 5.21294E+03 1.80876E+01-2.25747E+03
 -1        78-4.05190E+02 1.40382E+02-4.70146E+02
 -1        79-1.17962E+03 4.64913E+01-8.11648E+02
 -1        80-2.26634E+03 2.10369E+01-9.73734E+02
 -1        81-3.37552E+03-3.36079E+01-9.73156E+02
 -1        82-4.41862E+03-7.08897E+01-8.23229E+02
 -1        83-5.20929E+03-1.06872E+02-5.54869E+02
 -1        84-5.66165E+03-1.29152E+02-1.91606E+02
 -1        85-5.68173E+03-1.41892E+02 2.28999E+02
 -1        86-5.23759E+03-1.41755E+02 6.72045E+02
 -1        87-4.32227E+03-1.31687E+02 1.10243E+03
 -1        88-2.97427E+03-1.11294E+02 1.48696E+03
 -1        89-1.25286E+03-8.51760E+01 1.80556E+03
 -1        90 7.47075E+02-5.56224E+01 2.03600E+03
 -1        91 2.94106E+03-2.82878E+01 2.18504E+03
 -1        92 5.21291E+03 1.56001E+00 2.24897E+03
 -1        93 0.00000E+00 0.00000E+00 0.00000E+00
 -1        94 0.00000E+00 0.00000E+00 0.00000E+00
 -1        95 0.00000E+00 0.00000E+00 0.00000E+00
 -1        96 0.00000E+00 0.00000E+00 0.00000E+00
 -1        97 0.00000E+00 0.00000E+00 0.00000E+00
 -1        98 7.50503E+03 1.41502E+01 2.13572E+00
 -1        99 7.50867E+03 1.41433E+01 1.13330E+03
 -1       100 7.50569E+03 1.41446E+01-6.75300E-11
 -1       101 7.50867E+03 1.41433E+01-1.13330E+03
 -1       102 7.50503E+03 1.41502E+01-2.13572E+00
 -1       103-3.23300E+02-8.74399E-01-8.76160E-01
 -1       104-1.16582E+03-2.69715E+01-3.76331E+02
 -1       105-1.18267E+03-2.29179E+00-1.57465E+00
 -1       106-1.16573E+03 2.24021E+01 3.73200E+02
 -1       107-2.23925E+03-4.28813E+00-1.85376E+00
 -1       108-3.39462E+03 7.23282E+00-4.66582E+02
 -1       109-3.40399E+03-6.34499E+00-1.85920E+00
 -1       110-3.39468E+03-1.99211E+01 4.62865E+02
 -1       111-4.44368E+03-8.26499E+00-1.56850E+00
 -1       112-5.24790E+03 3.87034E+01-2.63983E+02
 -1       113-5.26274E+03-9.72961E+00-1.05957E+00
 -1       114-5.24808E+03-5.82044E+01 2.61862E+02
 -1       115-5.71618E+03-1.05562E+01-3.68735E-01
 -1       116-5.73191E+03 5.48885E+01 1.18683E+02
 -1       117-5.74847E+03-1.05857E+01 4.29444E-01
 -1       118-5.73216E+03-7.61171E+01-1.17824E+02
 -1       119-5.29995E+03-9.74476E+00 1.27052E+00
 -1       120-4.36911E+03 5.35963E+01 5.47284E+02
 -1       121-4.38460E+03-8.03099E+00 2.08637E+00
 -1       122-4.36935E+03-6.97129E+01-5.43110E+02
 -1       123-3.02454E+03-5.50375E+00 2.81586E+00
 -1       124-1.28505E+03 3.93092E+01 8.94198E+02
 -1       125-1.29719E+03-2.28622E+00 3.41712E+00
 -1       126-1.28521E+03-4.39168E+01-8.87359E+02
 -1       127 7.21031E+02 1.46414E+00 3.85560E+00
 -1       128 2.92514E+03 2.15141E+01 1.08731E+03
 -1       129 2.91888E+03 5.56561E+00 4.13218E+00
 -1       130 2.92508E+03-1.03908E+01-1.07904E+03
 -1       131 5.21024E+03 9.84039E+00 4.25457E+00
 -1       132-4.63992E+02-6.09263E-01 4.64927E+02
 -1       133-1.21233E+03 2.16727E+01 8.30027E+02
 -1       134-1.21612E+03-2.22876E+00 8.35572E+02
 -1       135-1.21242E+03-2.60665E+01 8.31440E+02
 -1       136-2.27546E+03-4.21988E+00 9.83681E+02
 -1       137-3.36650E+03-2.00202E+01 9.85216E+02
 -1       138-3.36691E+03-6.41487E+00 9.86566E+02
 -1       139-3.36645E+03 7.22569E+00 9.86968E+02
 -1       140-4.38575E+03-8.37416E+00 8.32311E+02
 -1       141-5.17410E+03-5.84133E+01 5.62192E+02
 -1       142-5.16294E+03-9.91769E+00 5.62250E+02
 -1       143-5.17392E+03 3.86335E+01 5.63183E+02
 -1       144-5.60156E+03-1.07722E+01 1.95666E+02
 -1       145-5.63249E+03-7.63671E+01-2.27637E+02
 -1       146-5.61719E+03-1.08331E+01-2.27881E+02
 -1       147-5.63224E+03 5.47630E+01-2.28083E+02
 -1       148-5.17097E+03-9.98782E+00-6.74189E+02
 -1       149-4.27616E+03-6.99798E+01-1.10656E+03
 -1       150-4.26158E+03-8.26283E+00-1.10711E+03
 -1       151-4.27593E+03 5.35121E+01-1.10862E+03
 -1       152-2.92052E+03-5.69979E+00-1.49421E+03
 -1       153-1.22256E+03-4.38597E+01-1.81269E+03
 -1       154-1.21316E+03-2.44458E+00-1.81326E+03
 -1       155-1.22241E+03 3.90160E+01-1.81605E+03
 -1       156 7.76935E+02 1.35879E+00-2.04594E+03
 -1       157 2.95122E+03-1.12732E+01-2.19201E+03
 -1       158 2.95334E+03 5.50067E+00-2.19271E+03
 -1       159 2.95128E+03 2.22981E+01-2.19610E+03
 -1       160 5.22172E+03 9.81875E+00-2.25765E+03
 -1       161-3.23300E+02-8.74399E-01 8.76160E-01
 -1       162-1.16582E+03-2.69715E+01 3.76331E+02
 -1       163-1.18267E+03-2.29179E+00 1.57465E+00
 -1       164-1.16573E+03 2.24021E+01-3.73200E+02
 -1       165-2.23925E+03-4.28813E+00 1.85376E+00
 -1       166-3.39462E+03 7.23282E+00 4.66582E+02
 -1       167-3.40399E+03-6.34499E+00 1.85920E+00
 -1       168-3.39468E+03-1.99211E+01-4.62865E+02
 -1       169-4.44368E+03-8.26499E+00 1.56850E+00
 -1       170-5.24790E+03 3.87034E+01 2.63983E+02
 -1       171-5.26274E+03-9.72961E+00 1.05957E+00
 -1       172-5.24808E+03-5.82044E+01-2.61862E+02
 -1       173-5.71618E+03-1.05562E+01 3.68735E-01
 -1       174-5.73191E+03 5.48885E+01-1.18683E+02
 -1       175-5.74847E+03-1.05857E+01-4.29444E-01
 -1       176-5.73216E+03-7.61171E+01 1.17824E+02
 -1       177-5.29995E+03-9.74476E+00-1.27052E+00
 -1       178-4.36911E+03 5.35963E+01-5.47284E+02
 -1       179-4.38460E+03-8.03099E+00-2.08637E+00
 -1       180-4.36935E+03-6.97129E+01 5.43110E+02
 -1       181-3.02454E+03-5.50375E+00-2.81586E+00
 -1       182-1.28505E+03 3.93092E+01-8.94198E+02
 -1       183-1.29719E+03-2.28622E+00-3.41712E+00
 -1       184-1.28521E+03-4.39168E+01 8.87359E+02
 -1       185 7.21031E+02 1.46414E+00-3.85560E+00
 -1       186 2.92514E+03 2.15141E+01-1.08731E+03
 -1       187 2.91888E+03 5.56561E+00-4.13218E+00
 -1       188 2.92508E+03-1.03908E+01 1.07904E+03
 -1       189 5.21024E+03 9.84039E+00-4.25457E+00
 -1       190-4.63992E+02-6.09263E-01-4.64927E+02
 -1       191-1.21233E+03 2.16727E+01-8.30027E+02
 -1       192-1.21612E+03-2.22876E+00-8.35572E+02
 -1       193-1.21242E+03-2.60665E+01-8.31440E+02
 -1       194-2.27546E+03-4.21988E+00-9.83681E+02
 -1       195-3.36650E+03-2.00202E+01-9.85216E+02
 -1       196-3.36691E+03-6.41487E+00-9.86566E+02
 -1       197-3.36645E+03 7.22569E+00-9.86968E+02
 -1       198-4.38575E+03-8.37416E+00-8.32311E+02
 -1       199-5.17410E+03-5.84133E+01-5.62192E+02
 -1       200-5.16294E+03-9.91769E+00-5.62250E+02
 -1       201-5.17392E+03 3.86335E+01-5.63183E+02
 -1       202-5.60156E+03-1.07722E+01-1.95666E+02
 -1       203-5.63249E+03-7.63671E+01 2.27637E+02
 -1       204-5.61719E+03-1.08331E+01 2.27881E+02
 -1       205-5.63224E+03 5.47630E+01 2.28083E+02
 -1       206-5.17097E+03-9.98782E+00 6.74189E+02
 -1       207-4.27616E+03-6.99798E+01 1.10656E+03
 -1       208-4.26158E+03-8.26283E+00 1.10711E+03
 -1       209-4.27593E+03 5.35121E+01 1.10862E+03
 -1       210-2.92052E+03-5.69979E+00 1.49421E+03
 -1       211-1.22256E+03-4.38597E+01 1.81269E+03
 -1       212-1.21316E+03-2.44458E+00 1.81326E+03
 -1       213-1.22241E+03 3.90160E+01 1.81605E+03
 -1       214 7.76935E+02 1.35879E+00 2.04594E+03
 -1       215 2.95122E+03-1.12732E+01 2.19201E+03
 -1       216 2.95334E+03 5.50067E+00 2.19271E+03
 -1       217 2.95128E+03 2.22981E+01 2.19610E+03
 -1       218 5.22172E+03 9.81875E+00 2.25765E+03
 -1       219-3.78649E+02-7.13569E-01-5.68434E-12
 -1       220-1.21346E+03-2.26003E+00-7.35926E-01
 -1       221-1.19927E+03-2.28679E+00-3.90513E+02
 -1       222-1.21470E+03-2.28911E+00-1.04592E-11
 -1       223-1.19927E+03-2.28679E+00 3.90513E+02
 -1       224-1.21346E+03-2.26003E+00 7.35926E-01
 -1       225-2.25108E+03-4.24219E+00-1.84173E-11
 -1       226-3.39304E+03-6.37780E+00-8.95613E-01
 -1       227-3.38432E+03-6.39423E+00-4.75249E+02
 -1       228-3.39143E+03-6.39118E+00-2.54659E-11
 -1       229-3.38432E+03-6.39423E+00 4.75249E+02
 -1       230-3.39304E+03-6.37780E+00 8.95613E-01
 -1       231-4.41331E+03-8.31693E+00-3.04681E-11
 -1       232-5.22675E+03-9.80121E+00-5.07195E-01
 -1       233-5.20093E+03-9.84987E+00-2.69139E+02
 -1       234-5.21465E+03-9.82706E+00-3.50155E-11
 -1       235-5.20093E+03-9.84987E+00 2.69139E+02
 -1       236-5.22675E+03-9.80121E+00 5.07195E-01
 -1       237-5.65823E+03-1.06630E+01-4.13820E-11
 -1       238-5.69900E+03-1.06804E+01 2.20111E-01
 -1       239-5.66747E+03-1.07398E+01 1.16800E+02
 -1       240-5.68330E+03-1.07102E+01-5.04770E-11
 -1       241-5.66747E+03-1.07398E+01-1.16800E+02
 -1       242-5.69900E+03-1.06804E+01-2.20111E-01
 -1       243-5.23524E+03-9.86588E+00-5.32054E-11
 -1       244-4.33816E+03-8.11896E+00 1.03255E+00
 -1       245-4.30826E+03-8.17532E+00 5.47914E+02
 -1       246-4.32304E+03-8.14682E+00-5.59339E-11
 -1       247-4.30826E+03-8.17532E+00-5.47914E+02
 -1       248-4.33816E+03-8.11896E+00-1.03255E+00
 -1       249-2.97246E+03-5.60164E+00-5.70708E-11
 -1       250-1.26539E+03-2.34520E+00 1.68846E+00
 -1       251-1.24446E+03-2.38463E+00 8.95967E+02
 -1       252-1.25474E+03-2.36457E+00-6.13909E-11
 -1       253-1.24446E+03-2.38463E+00-8.95967E+02
 -1       254-1.26539E+03-2.34520E+00-1.68846E+00
 -1       255 7.48479E+02 1.41052E+00-6.11635E-11
 -1       256 2.93053E+03 5.54187E+00 2.04785E+00
 -1       257 2.94075E+03 5.52262E+00 1.08668E+03
 -1       258 2.93549E+03 5.53196E+00-6.29825E-11
 -1       259 2.94075E+03 5.52262E+00-1.08668E+03
 -1       260 2.93053E+03 5.54187E+00-2.04785E+00
 -1       261 5.21726E+03 9.83200E+00-6.63931E-11
 -3
    1PSTEP                         8           1           2          
    1PGM                1.000000E+00                                  
    1PGK                2.056135E+11                                  
    1PHID                         -1                                  
    1PSUBC                         0                                  
    1PMODE                         4                                  
  100CL  105 7.21682E+04         261                     2    5MODAL      1
 -4  STRESS      6    1
 -5  SXX         1    4    1    1
 -5  SYY         1    4    2    2
 -5  SZZ         1    4    3    3
 -5  SXY         1    4    1    2
 -5  SYZ         1    4    2    3
 -5  SZX         1    4    3    1
 -1         1-7.70292E+07-6.99022E+07-2.65150E+08 8.25363E+06-3.98850E+07-2.88380E+07
 -1         2 7.67662E+07 6.96124E+07 2.64153E+08 8.22258E+06 3.97766E+07-2.86879E+07
 -1         3 7.70292E+07 6.99022E+07 2.65150E+08-8.25363E+06-3.98850E+07-2.88380E+07
 -1         4-7.67662E+07-6.96124E+07-2.64153E+08-8.22258E+06 3.97766E+07-2.86879E+07
 -1         5-7.45305E+06 1.42504E+06-3.53390E+06-3.14216E+06-7.98042E+05 2.28525E+06
 -1         6 7.45847E+06-1.45314E+06 3.52061E+06-3.13034E+06 8.06660E+05 2.28827E+06
 -1         7 7.45305E+06-1.42504E+06 3.53390E+06 3.14216E+06-7.98042E+05 2.28525E+06
 -1         8-7.45847E+06 1.45314E+06-3.52061E+06 3.13034E+06 8.06660E+05 2.28827E+06
 -1         9-2.15246E+07-2.69799E+07-1.23068E+08 8.29513E+06-1.99953E+07-1.53950E+07
 -1        10-1.21268E+05-1.34322E+05-4.75367E+05 8.34481E+06-8.76878E+04-1.95563E+06
 -1        11 2.12719E+07 2.67007E+07 1.22094E+08 8.28779E+06 1.98534E+07-1.53235E+07
 -1        12 7.40367E+07 6.70134E+07 2.58220E+08 1.93214E+06 1.89451E+07-3.76093E+07
 -1        13 7.12769E+07 6.43501E+07 2.52250E+08-1.57259E+04-3.68540E+03-4.65308E+07
 -1        14 7.41379E+07 6.70940E+07 2.58682E+08-1.96339E+06-1.90030E+07-3.76844E+07
 -1        15 2.15246E+07 2.69799E+07 1.23068E+08-8.29513E+06-1.99953E+07-1.53950E+07
 -1        16 1.21268E+05 1.34322E+05 4.75367E+05-8.34481E+06-8.76878E+04-1.95563E+06
 -1        17-2.12719E+07-2.67007E+07-1.22094E+08-8.28779E+06 1.98534E+07-1.53235E+07
 -1        18-7.40367E+07-6.70134E+07-2.58220E+08-1.93214E+06 1.89451E+07-3.76093E+07
 -1        19-7.12769E+07-6.43501E+07-2.52250E+08 1.57259E+04-3.68540E+03-4.65308E+07
 -1        20-7.41379E+07-6.70940E+07-2.58682E+08 1.96339E+06-1.90030E+07-3.76844E+07
 -1        21-4.24608E+06-8.38279E+04-1.87510E+06-2.09352E+06-3.01460E+04 3.96974E+06
 -1        22 2.64606E+03-6.06817E+02-8.91446E+03-1.05206E+06-4.84362E+02 5.65561E+06
 -1        23 4.25144E+06 6.91706E+04 1.85954E+06-2.09479E+06 3.39711E+04 3.97263E+06
 -1        24 3.88874E+06-1.42961E+06 4.12530E+06 3.40967E+05 7.73910E+05 1.01493E+06
 -1        25 3.22002E+05-1.40411E+06 4.73038E+06 1.98262E+03 1.06581E+04-2.57023E+05
 -1        26 3.88903E+06-1.41359E+06 4.13234E+06-3.33074E+05-7.58942E+05 1.01481E+06
 -1        27 4.24608E+06 8.38279E+04 1.87510E+06 2.09352E+06-3.01460E+04 3.96974E+06
 -1        28-2.64606E+03 6.06817E+02 8.91446E+03 1.05206E+06-4.84362E+02 5.65561E+06
 -1        29-4.25144E+06-6.91706E+04-1.85954E+06 2.09479E+06 3.39711E+04 3.97263E+06
 -1        30-3.88874E+06 1.42961E+06-4.12530E+06-3.40967E+05 7.73910E+05 1.01493E+06
 -1        31-3.22002E+05 1.40411E+06-4.73038E+06-1.98262E+03 1.06581E+04-2.57023E+05
 -1        32-3.88903E+06 1.41359E+06-4.13234E+06 3.33074E+05-7.58942E+05 1.01481E+06
 -1        33 2.30643E+07 1.71495E+07 1.78576E+08 4.46187E+06 6.14789E+06-1.22064E+07
 -1        34-1.75194E+07-1.55679E+07 9.79922E+07-2.36997E+06-1.08388E+07-4.28161E+06
 -1        35-4.10595E+06-1.62092E+05 3.36627E+07-1.68833E+06-9.43156E+04-6.40188E+06
 -1        36 1.32399E+06-6.65496E+05-3.49812E+07 1.28579E+06-3.06945E+06-5.07440E+06
 -1        37 1.42449E+06 7.46942E+05-8.61690E+07 2.65113E+05-1.06744E+06-5.74688E+06
 -1        38-2.08748E+06-8.43113E+05-1.38615E+08-2.29241E+05-1.25871E+06-3.28692E+06
 -1        39-8.70494E+05-1.78776E+05-1.63371E+08-1.82639E+05-5.34439E+05-2.55065E+06
 -1        40-5.49804E+05-7.98086E+04-1.87354E+08 6.89509E+04-2.94026E+05-7.13775E+05
 -1        41-4.08269E+05-3.05568E+04-1.82041E+08-4.00870E+04 1.44723E+05 4.73397E+05
 -1        42-6.58629E+05-1.05341E+05-1.75743E+08-1.96039E+03 5.01101E+05 1.94690E+06
 -1        43-3.10047E+05-1.07091E+05-1.46677E+08-9.49420E+04 7.39449E+05 2.75306E+06
 -1        44-3.33226E+02-9.61372E+04-1.16695E+08-1.03917E+05 9.91090E+05 3.24229E+06
 -1        45-1.28720E+05 1.81384E+05-7.95519E+07 1.89889E+05 8.42897E+05 3.83803E+06
 -1        46-1.51042E+06 3.44344E+05-4.20559E+07 7.95823E+05 8.12623E+05 3.39696E+06
 -1        47 2.44505E+06-5.33180E+05-1.80431E+07-9.19282E+05 9.56754E+05 1.87099E+06
 -1        48-2.44306E+06 5.23969E+05 1.81112E+07-9.22753E+05-9.49708E+05 1.86740E+06
 -1        49 1.50913E+06-3.38654E+05 4.22147E+07 7.98828E+05-7.99826E+05 3.39392E+06
 -1        50 1.28038E+05-1.80900E+05 7.98523E+07 1.90606E+05-8.28437E+05 3.83488E+06
 -1        51 6.95573E+02 9.61391E+04 1.17135E+08-1.04310E+05-9.78877E+05 3.23857E+06
 -1        52 3.10453E+05 1.08260E+05 1.47231E+08-9.53005E+04-7.29078E+05 2.75030E+06
 -1        53 6.59031E+05 1.07824E+05 1.76407E+08-1.96780E+03-4.93766E+05 1.94503E+06
 -1        54 4.08387E+05 3.20958E+04 1.82729E+08-4.02384E+04-1.42940E+05 4.72855E+05
 -1        55 5.50109E+05 8.18814E+04 1.88061E+08 6.92113E+04 2.91338E+05-7.12672E+05
 -1        56 8.71174E+05 1.82058E+05 1.63988E+08-1.83328E+05 5.24829E+05-2.54866E+06
 -1        57 2.09068E+06 8.50986E+05 1.39138E+08-2.30107E+05 1.24633E+06-3.28220E+06
 -1        58-1.42732E+06-7.52317E+05 8.64944E+07 2.66114E+05 1.04579E+06-5.74290E+06
 -1        59-1.32149E+06 6.60510E+05 3.51133E+07 1.29064E+06 3.05035E+06-5.06287E+06
 -1        60 4.10659E+06 1.77569E+05-3.37898E+07-1.69471E+06 7.01874E+04-6.40157E+06
 -1        61 1.75782E+07 1.56341E+07-9.83622E+07-2.37892E+06 1.08227E+07-4.24079E+06
 -1        62-2.31291E+07-1.72366E+07-1.79250E+08 4.47872E+06-6.19394E+06-1.22297E+07
 -1        63 2.31291E+07 1.72366E+07 1.79250E+08-4.47872E+06-6.19394E+06-1.22297E+07
 -1        64-1.75782E+07-1.56341E+07 9.83622E+07 2.37892E+06 1.08227E+07-4.24079E+06
 -1        65-4.10659E+06-1.77569E+05 3.37898E+07 1.69471E+06 7.01874E+04-6.40157E+06
 -1        66 1.32149E+06-6.60510E+05-3.51133E+07-1.29064E+06 3.05035E+06-5.06287E+06
 -1        67 1.42732E+06 7.52317E+05-8.64944E+07-2.66114E+05 1.04579E+06-5.74290E+06
 -1        68-2.09068E+06-8.50986E+05-1.39138E+08 2.30107E+05 1.24633E+06-3.28220E+06
 -1        69-8.71174E+05-1.82058E+05-1.63988E+08 1.83328E+05 5.24829E+05-2.54866E+06
 -1        70-5.50109E+05-8.18814E+04-1.88061E+08-6.92113E+04 2.91338E+05-7.12672E+05
 -1        71-4.08387E+05-3.20958E+04-1.82729E+08 4.02384E+04-1.42940E+05 4.72855E+05
 -1        72-6.59031E+05-1.07824E+05-1.76407E+08 1.96780E+03-4.93766E+05 1.94503E+06
 -1        73-3.10453E+05-1.08260E+05-1.47231E+08 9.53005E+04-7.29078E+05 2.75030E+06
 -1        74-6.95573E+02-9.61391E+04-1.17135E+08 1.04310E+05-9.78877E+05 3.23857E+06
 -1        75-1.28038E+05 1.80900E+05-7.98523E+07-1.90606E+05-8.28437E+05 3.83488E+06
 -1        76-1.50913E+06 3.38654E+05-4.22147E+07-7.98828E+05-7.99826E+05 3.39392E+06
 -1        77 2.44306E+06-5.23969E+05-1.81112E+07 9.22753E+05-9.49708E+05 1.86740E+06
 -1        78-2.30643E+07-1.71495E+07-1.78576E+08-4.46187E+06 6.14789E+06-1.22064E+07
 -1        79 1.75194E+07 1.55679E+07-9.79922E+07 2.36997E+06-1.08388E+07-4.28161E+06
 -1        80 4.10595E+06 1.62092E+05-3.36627E+07 1.68833E+06-9.43156E+04-6.40188E+06
 -1        81-1.32399E+06 6.65496E+05 3.49812E+07-1.28579E+06-3.06945E+06-5.07440E+06
 -1        82-1.42449E+06-7.46942E+05 8.61690E+07-2.65113E+05-1.06744E+06-5.74688E+06
 -1        83 2.08748E+06 8.43113E+05 1.38615E+08 2.29241E+05-1.25871E+06-3.28692E+06
 -1        84 8.70494E+05 1.78776E+05 1.63371E+08 1.82639E+05-5.34439E+05-2.55065E+06
 -1        85 5.49804E+05 7.98086E+04 1.87354E+08-6.89509E+04-2.94026E+05-7.13775E+05
 -1        86 4.08269E+05 3.05568E+04 1.82041E+08 4.00870E+04 1.44723E+05 4.73397E+05
 -1        87 6.58629E+05 1.05341E+05 1.75743E+08 1.96039E+03 5.01101E+05 1.94690E+06
 -1        88 3.10047E+05 1.07091E+05 1.46677E+08 9.49420E+04 7.39449E+05 2.75306E+06
 -1        89 3.33226E+02 9.61372E+04 1.16695E+08 1.03917E+05 9.91090E+05 3.24229E+06
 -1        90 1.28720E+05-1.81384E+05 7.95519E+07-1.89889E+05 8.42897E+05 3.83803E+06
 -1        91 1.51042E+06-3.44344E+05 4.20559E+07-7.95823E+05 8.12623E+05 3.39696E+06
 -1        92-2.44505E+06 5.33180E+05 1.80431E+07 9.19282E+05 9.56754E+05 1.87099E+06
 -1        93-4.56803E+04-3.50216E+04-2.19974E+05 2.05440E+06-6.17937E+04-1.05027E+07
 -1        94-1.85839E+07-2.42399E+07-1.16727E+08 3.87154E+03-1.97925E+04-3.27903E+07
 -1        95-4.28408E-07-8.09319E-07-2.96067E-06 1.76020E-07-3.58996E+04-1.90498E+07
 -1        96 1.85839E+07 2.42399E+07 1.16727E+08-3.87154E+03-1.97925E+04-3.27903E+07
 -1        97 4.56803E+04 3.50216E+04 2.19974E+05-2.05440E+06-6.17937E+04-1.05027E+07
 -1        98-2.46583E+00-1.10739E+03-4.24720E+03-1.02849E+06 2.36000E+03 4.20863E+06
 -1        99-5.87628E+05-1.30847E+03-2.25374E+06-1.93821E+03 7.93121E+03 1.25231E+06
 -1       100-7.02852E-06 3.95789E-06-1.87720E-07 3.29994E-06 5.20436E+03 2.76165E+06
 -1       101 5.87628E+05 1.30847E+03 2.25374E+06 1.93821E+03 7.93121E+03 1.25231E+06
 -1       102 2.46583E+00 1.10739E+03 4.24720E+03 1.02849E+06 2.36000E+03 4.20863E+06
 -1       103-3.83196E+04-4.56346E+04-3.49641E+05 5.04040E+06-3.13746E+04-3.29999E+07
 -1       104 2.87325E+06 5.60600E+06-5.09286E+07-2.07294E+06 5.16866E+06-2.86464E+07
 -1       105 2.21498E+04 3.14186E+04-1.97238E+05-1.76992E+06 4.96920E+03-5.30546E+07
 -1       106-2.82170E+06-5.54151E+06 5.05463E+07-2.07143E+06-5.17172E+06-2.86694E+07
 -1       107 9.17936E+02 9.84766E+03-5.85304E+04-1.64053E+06-7.59147E+03-4.36570E+07
 -1       108 2.03805E+06 1.29834E+06 1.81021E+07 1.29488E+06 1.27074E+06-2.29510E+07
 -1       109-6.57682E+02-5.02945E+03 6.22155E+04 1.30126E+06-6.43335E+03-4.08421E+07
 -1       110-2.03745E+06-1.30586E+06-1.79738E+07 1.29460E+06-1.28672E+06-2.29598E+07
 -1       111-5.03206E+02-2.53098E+03 1.65520E+05 2.07213E+05-7.38003E+03-3.21531E+07
 -1       112 1.15377E+06 2.63149E+05 6.90109E+07-2.83588E+05 4.56706E+05-1.45919E+07
 -1       113 1.96754E+03 3.51503E+03 2.63286E+05-3.37505E+05-4.12517E+03-2.59035E+07
 -1       114-1.15021E+06-2.55697E+05-6.84859E+07-2.83590E+05-4.67021E+05-1.45962E+07
 -1       115 1.33657E+03 1.77630E+03 3.11311E+05-2.61706E+05-3.17399E+03-1.56088E+07
 -1       116 9.10956E+05 7.30530E+04 9.36362E+07 9.65414E+03 1.07787E+05-3.45240E+06
 -1       117 9.84791E+02 6.78429E+02 3.56289E+05-4.96638E+04-8.70423E+02-6.19253E+06
 -1       118-9.09819E+05-7.13382E+04-9.29261E+07 9.76317E+03-1.10001E+05-3.45336E+06
 -1       119 9.88223E+02 8.03608E+02 3.46218E+05-1.07906E+05 5.51941E+02 3.10978E+06
 -1       120 6.80853E+05 2.42619E+04 8.78635E+07-5.93808E+04-1.63597E+05 7.03197E+06
 -1       121 9.23835E+02 9.96634E+02 3.33933E+05-1.16674E+05 2.47115E+03 1.21199E+07
 -1       122-6.79729E+05-2.20237E+04-8.71978E+07-5.92572E+04 1.69736E+05 7.03385E+06
 -1       123 6.66690E+02 7.29506E+02 2.78397E+05-1.12605E+05 3.37581E+03 1.75953E+07
 -1       124 3.04786E+05 9.67098E+04 5.86309E+07-8.38288E+04-3.41068E+05 1.31789E+07
 -1       125 2.92878E+02 2.94673E+02 2.21060E+05-6.38694E+04 4.50137E+03 2.31209E+07
 -1       126-3.04312E+05-9.64142E+04-5.81895E+07-8.41543E+04 3.51676E+05 1.31825E+07
 -1       127-3.01920E+02-3.55569E+02 1.49856E+05 1.08261E+05 4.56714E+03 2.18255E+07
 -1       128 4.71821E+05-6.83737E+04 2.13135E+07 5.33052E+05-2.34957E+05 1.22438E+07
 -1       129-1.14674E+03-3.55055E+02 7.80957E+04 2.69084E+05 4.31100E+03 2.10952E+07
 -1       130-4.73611E+05 7.08639E+04-2.11560E+07 5.33358E+05 2.45666E+05 1.22469E+07
 -1       131 4.18510E+02-5.81587E+02 3.23702E+04-3.54028E+05 1.76286E+03 1.40814E+07
 -1       132 2.42156E+07 2.03340E+07 1.85534E+08-9.49869E+03-6.21887E+04-1.66486E+07
 -1       133-1.70999E+07-1.36719E+07 1.01324E+08-3.95516E+05-6.17351E+06-8.21912E+05
 -1       134-1.66720E+07-1.17536E+07 1.04662E+08 3.33543E+03-9.99820E+04 2.63686E+06
 -1       135-1.71209E+07-1.36827E+07 1.01515E+08 4.03326E+05 6.06550E+06-8.02426E+05
 -1       136-5.22558E+06-4.87095E+05 3.10586E+07 3.09160E+03-8.22722E+04-4.02835E+06
 -1       137 1.99824E+06-1.53165E+05-3.39967E+07 7.26365E+04-2.36832E+06-4.24363E+06
 -1       138 2.66884E+06 3.48993E+05-3.30141E+07-2.45225E+03-7.69675E+04-3.41380E+06
 -1       139 1.99334E+06-1.60845E+05-3.40647E+07-7.75164E+04 2.28180E+06-4.23881E+06
 -1       140 1.34304E+06 2.67022E+05-8.78318E+07-3.90496E+02-6.05928E+04-3.91615E+06
 -1       141-1.97666E+06-9.43384E+05-1.39164E+08 8.96010E+02-1.18628E+06-2.73764E+06
 -1       142-1.86522E+06-1.04406E+06-1.39711E+08 6.36031E+02-4.88155E+04-2.18898E+06
 -1       143-1.97764E+06-9.47726E+05-1.39423E+08 1.72845E+02 1.13127E+06-2.73590E+06
 -1       144-9.42579E+05-7.09239E+05-1.65194E+08 4.93189E+02-2.94149E+04-1.68425E+06
 -1       145-4.54844E+05-2.99992E+05-1.88209E+08-2.89451E+04-2.61366E+05-5.87758E+05
 -1       146-3.60002E+05-5.22571E+05-1.89062E+08 9.35920E+01-1.16699E+04-4.61883E+05
 -1       147-4.55116E+05-3.03424E+05-1.88561E+08 2.89086E+04 2.48352E+05-5.87348E+05
 -1       148-4.26427E+05-5.24392E+05-1.83718E+08 2.03350E+02 5.86042E+03 2.92883E+05
 -1       149-5.93799E+05-2.97122E+05-1.76472E+08-3.26837E+04 5.12268E+05 1.62895E+06
 -1       150-5.28855E+05-4.90225E+05-1.77199E+08 2.19873E+02 2.28400E+04 1.31130E+06
 -1       151-5.93886E+05-2.99686E+05-1.76802E+08 3.29073E+04-4.85761E+05 1.62832E+06
 -1       152-3.87106E+05-3.53773E+05-1.47729E+08 2.12206E+02 3.31585E+04 1.79134E+06
 -1       153-7.82582E+04-1.25202E+05-1.16999E+08 8.65318E+04 9.82377E+05 2.81517E+06
 -1       154-1.56366E+05-1.55413E+05-1.17304E+08 1.20363E+02 4.35716E+04 2.38861E+06
 -1       155-7.86221E+04-1.26349E+05-1.17219E+08-8.62152E+04-9.32699E+05 2.81387E+06
 -1       156 1.88680E+05 1.60211E+05-7.95200E+07-2.04019E+02 4.11304E+04 2.42351E+06
 -1       157-6.60814E+05 4.75893E+05-4.17480E+07-8.22013E+04 8.47158E+05 2.84197E+06
 -1       158 1.88407E+05 6.08506E+05-4.14408E+07-5.07092E+02 3.97542E+04 2.28759E+06
 -1       159-6.60551E+05 4.74111E+05-4.18281E+07 8.01916E+04-8.01006E+05 2.84106E+06
 -1       160 3.08614E+05-2.22079E+05-1.71770E+07 6.67170E+02 2.65366E+04 9.35448E+05
 -1       161 3.83196E+04 4.56346E+04 3.49641E+05-5.04040E+06-3.13746E+04-3.29999E+07
 -1       162-2.87325E+06-5.60600E+06 5.09286E+07 2.07294E+06 5.16866E+06-2.86464E+07
 -1       163-2.21498E+04-3.14186E+04 1.97238E+05 1.76992E+06 4.96920E+03-5.30546E+07
 -1       164 2.82170E+06 5.54151E+06-5.05463E+07 2.07143E+06-5.17172E+06-2.86694E+07
 -1       165-9.17936E+02-9.84766E+03 5.85304E+04 1.64053E+06-7.59147E+03-4.36570E+07
 -1       166-2.03805E+06-1.29834E+06-1.81021E+07-1.29488E+06 1.27074E+06-2.29510E+07
 -1       167 6.57682E+02 5.02945E+03-6.22155E+04-1.30126E+06-6.43335E+03-4.08421E+07
 -1       168 2.03745E+06 1.30586E+06 1.79738E+07-1.29460E+06-1.28672E+06-2.29598E+07
 -1       169 5.03206E+02 2.53098E+03-1.65520E+05-2.07213E+05-7.38003E+03-3.21531E+07
 -1       170-1.15377E+06-2.63149E+05-6.90109E+07 2.83588E+05 4.56706E+05-1.45919E+07
 -1       171-1.96754E+03-3.51503E+03-2.63286E+05 3.37505E+05-4.12517E+03-2.59035E+07
 -1       172 1.15021E+06 2.55697E+05 6.84859E+07 2.83590E+05-4.67021E+05-1.45962E+07
 -1       173-1.33657E+03-1.77630E+03-3.11311E+05 2.61706E+05-3.17399E+03-1.56088E+07
 -1       174-9.10956E+05-7.30530E+04-9.36362E+07-9.65414E+03 1.07787E+05-3.45240E+06
 -1       175-9.84791E+02-6.78429E+02-3.56289E+05 4.96638E+04-8.70423E+02-6.19253E+06
 -1       176 9.09819E+05 7.13382E+04 9.29261E+07-9.76317E+03-1.10001E+05-3.45336E+06
 -1       177-9.88223E+02-8.03608E+02-3.46218E+05 1.07906E+05 5.51941E+02 3.10978E+06
 -1       178-6.80853E+05-2.42619E+04-8.78635E+07 5.93808E+04-1.63597E+05 7.03197E+06
 -1       179-9.23835E+02-9.96634E+02-3.33933E+05 1.16674E+05 2.47115E+03 1.21199E+07
 -1       180 6.79729E+05 2.20237E+04 8.71978E+07 5.92572E+04 1.69736E+05 7.03385E+06
 -1       181-6.66690E+02-7.29506E+02-2.78397E+05 1.12605E+05 3.37581E+03 1.75953E+07
 -1       182-3.04786E+05-9.67098E+04-5.86309E+07 8.38288E+04-3.41068E+05 1.31789E+07
 -1       183-2.92878E+02-2.94673E+02-2.21060E+05 6.38694E+04 4.50137E+03 2.31209E+07
 -1       184 3.04312E+05 9.64142E+04 5.81895E+07 8.41543E+04 3.51676E+05 1.31825E+07
 -1       185 3.01920E+02 3.55569E+02-1.49856E+05-1.08261E+05 4.56714E+03 2.18255E+07
 -1       186-4.71821E+05 6.83737E+04-2.13135E+07-5.33052E+05-2.34957E+05 1.22438E+07
 -1       187 1.14674E+03 3.55055E+02-7.80957E+04-2.69084E+05 4.31100E+03 2.10952E+07
 -1       188 4.73611E+05-7.08639E+04 2.11560E+07-5.33358E+05 2.45666E+05 1.22469E+07
 -1       189-4.18510E+02 5.81587E+02-3.23702E+04 3.54028E+05 1.76286E+03 1.40814E+07
 -1       190-2.42156E+07-2.03340E+07-1.85534E+08 9.49869E+03-6.21887E+04-1.66486E+07
 -1       191 1.70999E+07 1.36719E+07-1.01324E+08 3.95516E+05-6.17351E+06-8.21912E+05
 -1       192 1.66720E+07 1.17536E+07-1.04662E+08-3.33543E+03-9.99820E+04 2.63686E+06
 -1       193 1.71209E+07 1.36827E+07-1.01515E+08-4.03326E+05 6.06550E+06-8.02426E+05
 -1       194 5.22558E+06 4.87095E+05-3.10586E+07-3.09160E+03-8.22722E+04-4.02835E+06
 -1       195-1.99824E+06 1.53165E+05 3.39967E+07-7.26365E+04-2.36832E+06-4.24363E+06
 -1       196-2.66884E+06-3.48993E+05 3.30141E+07 2.45225E+03-7.69675E+04-3.41380E+06
 -1       197-1.99334E+06 1.60845E+05 3.40647E+07 7.75164E+04 2.28180E+06-4.23881E+06
 -1       198-1.34304E+06-2.67022E+05 8.78318E+07 3.90496E+02-6.05928E+04-3.91615E+06
 -1       199 1.97666E+06 9.43384E+05 1.39164E+08-8.96010E+02-1.18628E+06-2.73764E+06
 -1       200 1.86522E+06 1.04406E+06 1.39711E+08-6.36031E+02-4.88155E+04-2.18898E+06
 -1       201 1.97764E+06 9.47726E+05 1.39423E+08-1.72845E+02 1.13127E+06-2.73590E+06
 -1       202 9.42579E+05 7.09239E+05 1.65194E+08-4.93189E+02-2.94149E+04-1.68425E+06
 -1       203 4.54844E+05 2.99992E+05 1.88209E+08 2.89451E+04-2.61366E+05-5.87758E+05
 -1       204 3.60002E+05 5.22571E+05 1.89062E+08-9.35920E+01-1.16699E+04-4.61883E+05
 -1       205 4.55116E+05 3.03424E+05 1.88561E+08-2.89086E+04 2.48352E+05-5.87348E+05
 -1       206 4.26427E+05 5.24392E+05 1.83718E+08-2.03350E+02 5.86042E+03 2.92883E+05
 -1       207 5.93799E+05 2.97122E+05 1.76472E+08 3.26837E+04 5.12268E+05 1.62895E+06
 -1       208 5.28855E+05 4.90225E+05 1.77199E+08-2.19873E+02 2.28400E+04 1.31130E+06
 -1       209 5.93886E+05 2.99686E+05 1.76802E+08-3.29073E+04-4.85761E+05 1.62832E+06
 -1       210 3.87106E+05 3.53773E+05 1.47729E+08-2.12206E+02 3.31585E+04 1.79134E+06
 -1       211 7.82582E+04 1.25202E+05 1.16999E+08-8.65318E+04 9.82377E+05 2.81517E+06
 -1       212 1.56366E+05 1.55413E+05 1.17304E+08-1.20363E+02 4.35716E+04 2.38861E+06
 -1       213 7.86221E+04 1.26349E+05 1.17219E+08 8.62152E+04-9.32699E+05 2.81387E+06
 -1       214-1.88680E+05-1.60211E+05 7.95200E+07 2.04019E+02 4.11304E+04 2.42351E+06
 -1       215 6.60814E+05-4.75893E+05 4.17480E+07 8.22013E+04 8.47158E+05 2.84197E+06
 -1       216-1.88407E+05-6.08506E+05 4.14408E+07 5.07092E+02 3.97542E+04 2.28759E+06
 -1       217 6.60551E+05-4.74111E+05 4.18281E+07-8.01916E+04-8.01006E+05 2.84106E+06
 -1       218-3.08614E+05 2.22079E+05 1.71770E+07-6.67170E+02 2.65366E+04 9.35448E+05
 -1       219 4.09782E-08 2.32831E-09-2.24030E-06-2.48605E-07-6.43351E+04-3.41389E+07
 -1       220 6.58259E+03 4.08910E+03-1.02262E+05 1.99686E+05-3.65332E+04-4.72318E+07
 -1       221 2.16985E+06 3.49300E+06-5.42644E+07 3.76311E+02-8.90088E+04-1.93860E+07
 -1       222 7.05477E-07 2.84985E-07-2.35182E-06-3.39525E-07-7.80356E+04-4.14089E+07
 -1       223-2.16985E+06-3.49300E+06 5.42644E+07-3.76311E+02-8.90088E+04-1.93860E+07
 -1       224-6.58259E+03-4.08910E+03 1.02262E+05-1.99686E+05-3.65332E+04-4.72318E+07
 -1       225-1.29687E-07 2.93716E-07-2.94670E-06-7.54429E-07-6.65643E+04-3.53217E+07
 -1       226 1.75023E+03 3.07896E+03 3.24030E+04 8.99528E+04-3.42303E+04-3.68782E+07
 -1       227 1.63383E+06 9.28743E+05 1.71944E+07 1.69517E+02-6.94974E+04-1.81640E+07
 -1       228-7.65547E-07 3.10916E-07-2.75631E-06-1.35331E-06-6.20273E+04-3.29143E+07
 -1       229-1.63383E+06-9.28743E+05-1.71944E+07-1.69517E+02-6.94974E+04-1.81640E+07
 -1       230-1.75023E+03-3.07896E+03-3.24030E+04-8.99528E+04-3.42303E+04-3.68782E+07
 -1       231-5.65284E-06 1.61078E-06-3.58652E-06-7.04997E-07-4.80011E+04-2.54714E+07
 -1       232 6.74558E+02 1.75442E+03 1.30549E+05-1.09169E+05-2.15401E+04-2.32873E+07
 -1       233 9.30970E+05 3.57948E+05 6.92746E+07-2.05730E+02-4.38852E+04-1.14301E+07
 -1       234-1.26990E-05 3.43635E-06-4.70830E-06 6.02195E-08-3.89550E+04-2.06711E+07
 -1       235-9.30970E+05-3.57948E+05-6.92746E+07 2.05730E+02-4.38852E+04-1.14301E+07
 -1       236-6.74558E+02-1.75442E+03-1.30549E+05 1.09169E+05-2.15401E+04-2.32873E+07
 -1       237 1.38037E-06 1.59492E-06-2.01492E-06-2.64572E-07-2.34094E+04-1.24220E+07
 -1       238 6.13886E+02 1.45548E+03 1.77352E+05-1.49143E+05-5.12921E+03-5.58710E+06
 -1       239 7.72335E+05 3.25753E+05 9.41104E+07-2.81061E+02-1.05290E+04-2.72177E+06
 -1       240 1.59230E-05 7.88736E-07 2.27313E-06-4.52881E-07-9.38800E+03-4.98166E+06
 -1       241-7.72335E+05-3.25753E+05-9.41104E+07 2.81061E+02-1.05290E+04-2.72177E+06
 -1       242-6.13886E+02-1.45548E+03-1.77352E+05 1.49143E+05-5.12921E+03-5.58710E+06
 -1       243 8.49972E-06 1.35911E-06 1.54064E-06 1.82190E-07 4.63005E+03 2.45690E+06
 -1       244 4.25219E+02 1.01962E+03 1.66217E+05-1.11314E+05 1.02702E+04 1.08541E+07
 -1       245 5.41052E+05 2.25639E+05 8.82018E+07-2.09772E+02 2.04547E+04 5.44981E+06
 -1       246 1.92330E-06 5.04213E-07 2.01282E-07 4.74225E-07 1.80693E+04 9.58832E+06
 -1       247-5.41052E+05-2.25639E+05-8.82018E+07 2.09772E+02 2.04547E+04 5.44981E+06
 -1       248-4.25219E+02-1.01962E+03-1.66217E+05 1.11314E+05 1.02702E+04 1.08541E+07
 -1       249 9.08440E-07 2.93141E-07-6.19213E-07-1.05574E-07 2.62711E+04 1.39405E+07
 -1       250 1.53196E+02 5.02307E+02 1.10378E+05-8.08191E+04 1.94434E+04 2.06836E+07
 -1       251 2.66545E+05 8.12923E+04 5.85713E+07-1.52304E+02 3.89785E+04 1.03175E+07
 -1       252-5.93805E-07 1.96538E-07-1.17504E-06-2.51013E-07 3.43854E+04 1.82463E+07
 -1       253-2.66545E+05-8.12923E+04-5.85713E+07 1.52304E+02 3.89785E+04 1.03175E+07
 -1       254-1.53196E+02-5.02307E+02-1.10378E+05 8.08191E+04 1.94434E+04 2.06836E+07
 -1       255 3.36624E-06-3.66039E-07 1.24157E-07-1.16972E-06 3.27353E+04 1.73707E+07
 -1       256-2.74995E+02-5.24862E+02 3.95397E+04 2.95018E+05 1.80744E+04 1.89949E+07
 -1       257-2.78514E+05-1.45924E+05 2.09814E+07 5.55965E+02 3.57961E+04 9.59105E+06
 -1       258 5.78904E-06-1.01099E-06 1.32946E-07-1.96088E-06 3.18379E+04 1.68945E+07
 -1       259 2.78514E+05 1.45924E+05-2.09814E+07-5.55965E+02 3.57961E+04 9.59105E+06
 -1       260 2.74995E+02 5.24862E+02-3.95397E+04-2.95018E+05 1.80744E+04 1.89949E+07
 -1       261-1.85933E-06 1.29690E-06-2.15165E-07 9.80508E-07 1.92123E+04 1.01949E+07
 -3
    1PSTEP                         9           1           2          
    1PGM                1.000000E+00                                  
    1PGK                3.414095E+11                                  
    1PHID                         -1                                  
    1PSUBC                         0                                  
    1PMODE                         5                                  
  100CL  106 9.29946E+04         261                     2    6MODAL      1
 -4  DISP        4    1
 -5  D1          1    2    1    0
 -5  D2          1    2    2    0
 -5  D3          1    2    3    0
 -5  ALL         1    2    0    0    1ALL
 -1         1 0.00000E+00 0.00000E+00 0.00000E+00
 -1         2 0.00000E+00 0.00000E+00 0.00000E+00
 -1         3 0.00000E+00 0.00000E+00 0.00000E+00
 -1         4 0.00000E+00 0.00000E+00 0.00000E+00
 -1         5 6.97928E+03-6.97928E+03-6.12090E-10
 -1         6 6.97928E+03 6.97928E+03 2.94676E-10
 -1         7-6.97928E+03 6.97928E+03 6.84850E-10
 -1         8-6.97928E+03-6.97928E+03-2.26464E-10
 -1         9 0.00000E+00 0.00000E+00 0.00000E+00
 -1        10 0.00000E+00 0.00000E+00 0.00000E+00
 -1        11 0.00000E+00 0.00000E+00 0.00000E+00
 -1        12 0.00000E+00 0.00000E+00 0.00000E+00
 -1        13 0.00000E+00 0.00000E+00 0.00000E+00
 -1        14 0.00000E+00 0.00000E+00 0.00000E+00
 -1        15 0.00000E+00 0.00000E+00 0.00000E+00
 -1        16 0.00000E+00 0.00000E+00 0.00000E+00
 -1        17 0.00000E+00 0.00000E+00 0.00000E+00
 -1        18 0.00000E+00 0.00000E+00 0.00000E+00
 -1        19 0.00000E+00 0.00000E+00 0.00000E+00
 -1        20 0.00000E+00 0.00000E+00 0.00000E+00
 -1        21 6.96793E+03-3.48695E+03-1.19412E+00
 -1        22 6.95422E+03-1.05206E-09-1.45519E-10
 -1        23 6.96793E+03 3.48695E+03 1.19412E+00
 -1        24 3.48695E+03 6.96793E+03-1.19412E+00
 -1        25-1.81785E-09 6.95422E+03 4.87489E-10
 -1        26-3.48695E+03 6.96793E+03 1.19412E+00
 -1        27-6.96793E+03 3.48695E+03-1.19412E+00
 -1        28-6.95422E+03-1.09117E-09 2.32831E-10
 -1        29-6.96793E+03-3.48695E+03 1.19412E+00
 -1        30-3.48695E+03-6.96793E+03-1.19412E+00
 -1        31-1.82547E-09-6.95422E+03-4.23825E-10
 -1        32 3.48695E+03-6.96793E+03 1.19412E+00
 -1        33 5.99007E+02 5.99007E+02-3.02407E-11
 -1        34 1.28567E+03 1.28567E+03-4.95675E-11
 -1        35 1.97797E+03 1.97797E+03-5.43423E-11
 -1        36 2.62374E+03 2.62374E+03-4.37694E-11
 -1        37 3.24035E+03 3.24035E+03-1.83036E-11
 -1        38 3.83117E+03 3.83117E+03 6.13909E-12
 -1        39 4.38631E+03 4.38631E+03 3.10365E-11
 -1        40 4.89707E+03 4.89707E+03 6.69615E-11
 -1        41 5.35960E+03 5.35960E+03 9.16316E-11
 -1        42 5.77079E+03 5.77079E+03 1.24601E-10
 -1        43 6.12481E+03 6.12481E+03 1.48248E-10
 -1        44 6.42186E+03 6.42186E+03 1.82808E-10
 -1        45 6.65209E+03 6.65209E+03 2.21917E-10
 -1        46 6.82539E+03 6.82539E+03 2.69210E-10
 -1        47 6.91402E+03 6.91402E+03 2.88310E-10
 -1        48 6.91402E+03-6.91402E+03-6.05723E-10
 -1        49 6.82539E+03-6.82539E+03-5.90262E-10
 -1        50 6.65209E+03-6.65209E+03-5.54792E-10
 -1        51 6.42186E+03-6.42186E+03-4.85670E-10
 -1        52 6.12481E+03-6.12481E+03-4.09727E-10
 -1        53 5.77079E+03-5.77079E+03-3.22416E-10
 -1        54 5.35960E+03-5.35960E+03-2.19416E-10
 -1        55 4.89707E+03-4.89707E+03-1.18291E-10
 -1        56 4.38631E+03-4.38631E+03-1.76499E-11
 -1        57 3.83117E+03-3.83117E+03 6.38778E-11
 -1        58 3.24035E+03-3.24035E+03 1.26470E-10
 -1        59 2.62374E+03-2.62374E+03 1.66608E-10
 -1        60 1.97797E+03-1.97797E+03 1.76897E-10
 -1        61 1.28567E+03-1.28567E+03 1.48475E-10
 -1        62 5.99007E+02-5.99007E+02 8.70841E-11
 -1        63-5.99007E+02 5.99007E+02-8.22382E-11
 -1        64-1.28567E+03 1.28567E+03-1.37277E-10
 -1        65-1.97797E+03 1.97797E+03-1.57797E-10
 -1        66-2.62374E+03 2.62374E+03-1.41426E-10
 -1        67-3.24035E+03 3.24035E+03-1.00727E-10
 -1        68-3.83117E+03 3.83117E+03-2.56932E-11
 -1        69-4.38631E+03 4.38631E+03 7.26459E-11
 -1        70-4.89707E+03 4.89707E+03 1.80080E-10
 -1        71-5.35960E+03 5.35960E+03 2.81489E-10
 -1        72-5.77079E+03 5.77079E+03 3.86081E-10
 -1        73-6.12481E+03 6.12481E+03 4.72937E-10
 -1        74-6.42186E+03 6.42186E+03 5.65251E-10
 -1        75-6.65209E+03 6.65209E+03 6.12999E-10
 -1        76-6.82539E+03 6.82539E+03 6.57565E-10
 -1        77-6.91402E+03 6.91402E+03 6.64841E-10
 -1        78-5.99007E+02-5.99007E+02 3.64224E-11
 -1        79-1.28567E+03-1.28567E+03 6.32099E-11
 -1        80-1.97797E+03-1.97797E+03 7.31006E-11
 -1        81-2.62374E+03-2.62374E+03 7.07132E-11
 -1        82-3.24035E+03-3.24035E+03 6.04814E-11
 -1        83-3.83117E+03-3.83117E+03 4.16094E-11
 -1        84-4.38631E+03-4.38631E+03 1.34150E-11
 -1        85-4.89707E+03-4.89707E+03-3.97904E-12
 -1        86-5.35960E+03-5.35960E+03-3.59250E-11
 -1        87-5.77079E+03-5.77079E+03-5.77529E-11
 -1        88-6.12481E+03-6.12481E+03-8.36735E-11
 -1        89-6.42186E+03-6.42186E+03-1.26420E-10
 -1        90-6.65209E+03-6.65209E+03-1.60981E-10
 -1        91-6.82539E+03-6.82539E+03-2.07365E-10
 -1        92-6.91402E+03-6.91402E+03-2.18279E-10
 -1        93 0.00000E+00 0.00000E+00 0.00000E+00
 -1        94 0.00000E+00 0.00000E+00 0.00000E+00
 -1        95 0.00000E+00 0.00000E+00 0.00000E+00
 -1        96 0.00000E+00 0.00000E+00 0.00000E+00
 -1        97 0.00000E+00 0.00000E+00 0.00000E+00
 -1        98 3.47752E+03-1.06320E-09-5.54792E-11
 -1        99-1.80529E-09-3.47752E+03-1.90994E-10
 -1       100-1.79784E-09-1.06729E-09 3.81988E-11
 -1       101-1.80358E-09 3.47752E+03 2.59206E-10
 -1       102-3.47752E+03-1.08503E-09 1.29148E-10
 -1       103 6.29838E+02 2.73985E-11 2.84217E-11
 -1       104 1.28662E+03-6.44596E+02-1.28336E+02
 -1       105 1.28962E+03 7.04858E-11 5.13865E-11
 -1       106 1.28662E+03 6.44596E+02 1.28336E+02
 -1       107 1.96861E+03 1.26192E-10 6.12772E-11
 -1       108 2.62350E+03-1.31078E+03-8.92352E+01
 -1       109 2.62192E+03 1.90084E-10 6.67342E-11
 -1       110 2.62350E+03 1.31078E+03 8.92352E+01
 -1       111 3.24021E+03 2.38174E-10 5.33262E-11
 -1       112 3.83028E+03-1.91566E+03-8.81406E+01
 -1       113 3.82955E+03 2.71712E-10 3.63798E-11
 -1       114 3.83028E+03 1.91566E+03 8.81406E+01
 -1       115 4.38336E+03 2.80806E-10 9.43601E-12
 -1       116 4.89586E+03-2.44808E+03-7.31522E+01
 -1       117 4.89411E+03 2.42380E-10-3.10365E-11
 -1       118 4.89586E+03 2.44808E+03 7.31522E+01
 -1       119 5.35681E+03 1.65528E-10-6.61657E-11
 -1       120 5.76908E+03-2.88508E+03-5.79249E+01
 -1       121 5.76706E+03 4.73790E-11-1.02546E-10
 -1       122 5.76908E+03 2.88508E+03 5.79249E+01
 -1       123 6.12180E+03-1.04933E-10-1.33241E-10
 -1       124 6.41919E+03-3.21038E+03-3.98880E+01
 -1       125 6.41583E+03-2.78078E-10-1.58252E-10
 -1       126 6.41919E+03 3.21038E+03 3.98880E+01
 -1       127 6.64982E+03-4.84988E-10-1.59162E-10
 -1       128 6.82075E+03-3.41245E+03-2.00326E+01
 -1       129 6.81618E+03-6.82789E-10-1.69166E-10
 -1       130 6.82075E+03 3.41245E+03 2.00326E+01
 -1       131 6.91488E+03-8.83347E-10-1.50067E-10
 -1       132 5.94866E-11 6.29838E+02-5.66160E-11
 -1       133 6.44596E+02 1.28662E+03-1.28336E+02
 -1       134 1.58352E-10 1.28962E+03-9.60654E-11
 -1       135-6.44596E+02 1.28662E+03 1.28336E+02
 -1       136 2.86633E-10 1.96861E+03-1.04933E-10
 -1       137 1.31078E+03 2.62350E+03-8.92352E+01
 -1       138 4.24620E-10 2.62192E+03-9.54969E-11
 -1       139-1.31078E+03 2.62350E+03 8.92352E+01
 -1       140 5.29496E-10 3.24021E+03-6.11635E-11
 -1       141 1.91566E+03 3.83028E+03-8.81406E+01
 -1       142 5.98902E-10 3.82955E+03-6.99174E-12
 -1       143-1.91566E+03 3.83028E+03 8.81406E+01
 -1       144 6.21696E-10 4.38336E+03 5.14149E-11
 -1       145 2.44808E+03 4.89586E+03-7.31522E+01
 -1       146 5.78552E-10 4.89411E+03 1.23237E-10
 -1       147-2.44808E+03 4.89586E+03 7.31522E+01
 -1       148 4.67367E-10 5.35681E+03 1.85310E-10
 -1       149 2.88508E+03 5.76908E+03-5.79249E+01
 -1       150 2.90584E-10 5.76706E+03 2.49202E-10
 -1       151-2.88508E+03 5.76908E+03 5.79249E+01
 -1       152 6.67200E-11 6.12180E+03 3.14230E-10
 -1       153 3.21038E+03 6.41919E+03-3.98880E+01
 -1       154-2.26414E-10 6.41583E+03 3.70619E-10
 -1       155-3.21038E+03 6.41919E+03 3.98880E+01
 -1       156-5.63407E-10 6.64982E+03 4.18368E-10
 -1       157 3.41245E+03 6.82075E+03-2.00326E+01
 -1       158-9.68981E-10 6.81618E+03 4.61114E-10
 -1       159-3.41245E+03 6.82075E+03 2.00326E+01
 -1       160-1.37879E-09 6.91488E+03 4.76575E-10
 -1       161-6.29838E+02 2.54659E-11-2.27942E-11
 -1       162-1.28662E+03 6.44596E+02-1.28336E+02
 -1       163-1.28962E+03 7.04858E-11-3.91083E-11
 -1       164-1.28662E+03-6.44596E+02 1.28336E+02
 -1       165-1.96861E+03 1.24601E-10-4.26326E-11
 -1       166-2.62350E+03 1.31078E+03-8.92352E+01
 -1       167-2.62192E+03 1.85651E-10-3.93356E-11
 -1       168-2.62350E+03-1.31078E+03 8.92352E+01
 -1       169-3.24021E+03 2.35104E-10-2.25100E-11
 -1       170-3.83028E+03 1.91566E+03-8.81406E+01
 -1       171-3.82955E+03 2.73644E-10 5.22959E-12
 -1       172-3.83028E+03-1.91566E+03 8.81406E+01
 -1       173-4.38336E+03 2.72962E-10 4.35421E-11
 -1       174-4.89586E+03 2.44808E+03-7.31522E+01
 -1       175-4.89411E+03 2.53067E-10 8.13998E-11
 -1       176-4.89586E+03-2.44808E+03 7.31522E+01
 -1       177-5.35681E+03 1.62572E-10 1.26875E-10
 -1       178-5.76908E+03 2.88508E+03-5.79249E+01
 -1       179-5.76706E+03 4.64979E-11 1.64164E-10
 -1       180-5.76908E+03-2.88508E+03 5.79249E+01
 -1       181-6.12180E+03-1.05501E-10 1.91903E-10
 -1       182-6.41919E+03 3.21038E+03-3.98880E+01
 -1       183-6.41583E+03-2.75122E-10 2.17824E-10
 -1       184-6.41919E+03-3.21038E+03 3.98880E+01
 -1       185-6.64982E+03-4.85670E-10 2.32831E-10
 -1       186-6.82075E+03 3.41245E+03-2.00326E+01
 -1       187-6.81618E+03-7.05086E-10 2.27374E-10
 -1       188-6.82075E+03-3.41245E+03 2.00326E+01
 -1       189-6.91488E+03-8.74877E-10 2.24645E-10
 -1       190 6.20730E-11-6.29838E+02 6.25278E-11
 -1       191-6.44596E+02-1.28662E+03-1.28336E+02
 -1       192 1.59886E-10-1.28962E+03 1.09253E-10
 -1       193 6.44596E+02-1.28662E+03 1.28336E+02
 -1       194 2.89958E-10-1.96861E+03 1.24260E-10
 -1       195-1.31078E+03-2.62350E+03-8.92352E+01
 -1       196 4.15582E-10-2.62192E+03 1.20849E-10
 -1       197 1.31078E+03-2.62350E+03 8.92352E+01
 -1       198 5.32850E-10-3.24021E+03 9.37916E-11
 -1       199-1.91566E+03-3.83028E+03-8.81406E+01
 -1       200 6.04302E-10-3.82955E+03 5.02496E-11
 -1       201 1.91566E+03-3.83028E+03 8.81406E+01
 -1       202 6.20872E-10-4.38336E+03-3.92220E-12
 -1       203-2.44808E+03-4.89586E+03-7.31522E+01
 -1       204 5.83299E-10-4.89411E+03-5.90603E-11
 -1       205 2.44808E+03-4.89586E+03 7.31522E+01
 -1       206 4.65292E-10-5.35681E+03-1.24828E-10
 -1       207-2.88508E+03-5.76908E+03-5.79249E+01
 -1       208 2.95447E-10-5.76706E+03-1.91903E-10
 -1       209 2.88508E+03-5.76908E+03 5.79249E+01
 -1       210 6.62794E-11-6.12180E+03-2.50111E-10
 -1       211-3.21038E+03-6.41919E+03-3.98880E+01
 -1       212-2.42267E-10-6.41583E+03-3.09228E-10
 -1       213 3.21038E+03-6.41919E+03 3.98880E+01
 -1       214-5.64114E-10-6.64982E+03-3.57431E-10
 -1       215-3.41245E+03-6.82075E+03-2.00326E+01
 -1       216-9.70886E-10-6.81618E+03-3.94721E-10
 -1       217 3.41245E+03-6.82075E+03 2.00326E+01
 -1       218-1.38121E-09-6.91488E+03-4.12911E-10
 -1       219 5.04734E-11 2.23963E-11 2.78533E-12
 -1       220 6.45126E+02 6.75300E-11 2.69438E-11
 -1       221 1.56838E-10-6.45126E+02 5.34328E-11
 -1       222 1.56462E-10 6.84395E-11 5.57066E-12
 -1       223 1.55211E-10 6.45126E+02-4.08136E-11
 -1       224-6.45126E+02 6.91216E-11-1.55751E-11
 -1       225 2.88077E-10 1.26192E-10 9.89075E-12
 -1       226 1.31076E+03 1.88265E-10 3.64935E-11
 -1       227 4.18538E-10-1.31076E+03 6.37783E-11
 -1       228 4.22347E-10 1.83036E-10 1.18234E-11
 -1       229 4.24421E-10 1.31076E+03-3.88809E-11
 -1       230-1.31076E+03 1.84400E-10-1.18234E-11
 -1       231 5.37511E-10 2.44313E-10 1.65983E-11
 -1       232 1.91480E+03 2.71257E-10 2.69722E-11
 -1       233 6.08907E-10-1.91480E+03 3.47882E-11
 -1       234 6.06576E-10 2.71484E-10 2.17142E-11
 -1       235 6.05617E-10 1.91480E+03 8.41283E-12
 -1       236-1.91480E+03 2.75406E-10 1.40972E-11
 -1       237 6.29228E-10 2.84444E-10 2.53522E-11
 -1       238 2.44700E+03 2.39424E-10-4.54747E-13
 -1       239 5.92678E-10-2.44700E+03-1.65414E-11
 -1       240 5.91797E-10 2.35787E-10 2.87628E-11
 -1       241 5.84350E-10 2.44700E+03 7.44649E-11
 -1       242-2.44700E+03 2.47383E-10 5.53655E-11
 -1       243 4.82714E-10 1.73259E-10 3.11502E-11
 -1       244 2.88340E+03 4.84448E-11-3.63798E-11
 -1       245 3.00275E-10-2.88340E+03-7.95808E-11
 -1       246 3.06386E-10 4.86295E-11 3.04681E-11
 -1       247 3.02634E-10 2.88340E+03 1.40062E-10
 -1       248-2.88340E+03 5.04770E-11 9.64064E-11
 -1       249 7.47491E-11-9.91349E-11 3.04681E-11
 -1       250 3.20805E+03-2.75350E-10-6.27551E-11
 -1       251-2.26464E-10-3.20805E+03-1.40062E-10
 -1       252-2.21007E-10-2.77396E-10 2.91038E-11
 -1       253-2.20666E-10 3.20805E+03 1.96906E-10
 -1       254-3.20805E+03-2.79670E-10 1.24146E-10
 -1       255-5.60078E-10-4.88285E-10 3.18323E-11
 -1       256 3.40750E+03-6.82576E-10-6.45741E-11
 -1       257-9.62018E-10-3.40750E+03-1.80080E-10
 -1       258-9.53932E-10-6.82860E-10 3.27418E-11
 -1       259-9.64732E-10 3.40750E+03 2.46473E-10
 -1       260-3.40750E+03-6.90534E-10 1.30967E-10
 -1       261-1.37732E-09-8.93692E-10 3.36513E-11
 -3
    1PSTEP                        10           1           2          
    1PGM                1.000000E+00                                  
    1PGK                3.414095E+11                                  
    1PHID                         -1                                  
    1PSUBC                         0                                  
    1PMODE                         5                                  
  100CL  106 9.29946E+04         261                     2    6MODAL      1
 -4  STRESS      6    1
 -5  SXX         1    4    1    1
 -5  SYY         1    4    2    2
 -5  SZZ         1    4    3    3
 -5  SXY         1    4    1    2
 -5  SYZ         1    4    2    3
 -5  SZX         1    4    3    1
 -1         1 6.21605E+06-6.21605E+06 4.89334E-05-2.40978E-06-8.96823E+07 8.96823E+07
 -1         2-6.21605E+06 6.21605E+06-1.74213E-05-8.91334E-07 8.96823E+07 8.96823E+07
 -1         3 6.21605E+06-6.21605E+06-4.62383E-05 3.04374E-06 8.96823E+07-8.96823E+07
 -1         4-6.21605E+06 6.21605E+06 2.01906E-05 5.37431E-07-8.96823E+07-8.96823E+07
 -1         5-1.19810E+06 1.19810E+06-5.80044E-06 1.19267E-05 2.27159E+05-2.27159E+05
 -1         6 1.19810E+06-1.19810E+06-5.52298E-06 1.07028E-05-2.27159E+05-2.27159E+05
 -1         7-1.19810E+06 1.19810E+06 9.30705E-06-7.48880E-06-2.27159E+05 2.27159E+05
 -1         8 1.19810E+06-1.19810E+06-1.00996E-05 1.97982E-06 2.27159E+05 2.27159E+05
 -1         9 3.37529E+06-5.95003E+06-9.74132E+06-1.55397E+06-4.48867E+07 9.44718E+07
 -1        10 3.83426E-06 4.52995E-06 1.55475E-05-3.10794E+06 2.81981E-06 9.92614E+07
 -1        11-3.37529E+06 5.95003E+06 9.74132E+06-1.55397E+06 4.48867E+07 9.44718E+07
 -1        12-5.95003E+06 3.37529E+06-9.74132E+06 1.55397E+06 9.44718E+07 4.48867E+07
 -1        13-9.34163E-06-7.24598E-06-3.18028E-05 3.10794E+06 9.92614E+07 5.51948E-06
 -1        14 5.95003E+06-3.37529E+06 9.74132E+06 1.55397E+06 9.44718E+07-4.48867E+07
 -1        15 3.37529E+06-5.95003E+06-9.74132E+06-1.55397E+06 4.48867E+07-9.44718E+07
 -1        16-2.92715E-06-4.24311E-06-1.30031E-05-3.10794E+06 2.21445E-06-9.92614E+07
 -1        17-3.37529E+06 5.95003E+06 9.74132E+06-1.55397E+06-4.48867E+07-9.44718E+07
 -1        18-5.95003E+06 3.37529E+06-9.74132E+06 1.55397E+06-9.44718E+07-4.48867E+07
 -1        19 1.00881E-05 8.39127E-06 3.45875E-05 3.10794E+06-9.92614E+07 6.30761E-06
 -1        20 5.95003E+06-3.37529E+06 9.74132E+06 1.55397E+06-9.44718E+07 4.48867E+07
 -1        21-1.22536E+06 6.91042E+05 1.14852E+06 1.47968E+05 1.86034E+05 1.91140E+05
 -1        22 1.93468E-05 5.16756E-06 7.45500E-06 2.95936E+05 5.28002E-07 6.09439E+05
 -1        23 1.22536E+06-6.91042E+05-1.14852E+06 1.47968E+05-1.86034E+05 1.91140E+05
 -1        24 6.91042E+05-1.22536E+06 1.14852E+06-1.47968E+05 1.91140E+05-1.86034E+05
 -1        25-9.03144E-06-1.28000E-05-3.47663E-06-2.95936E+05 6.09439E+05-8.83389E-07
 -1        26-6.91042E+05 1.22536E+06-1.14852E+06-1.47968E+05 1.91140E+05 1.86034E+05
 -1        27-1.22536E+06 6.91042E+05 1.14852E+06 1.47968E+05-1.86034E+05-1.91140E+05
 -1        28-1.02923E-05 3.91103E-06 1.08639E-06 2.95936E+05-6.27562E-06-6.09439E+05
 -1        29 1.22536E+06-6.91042E+05-1.14852E+06 1.47968E+05 1.86034E+05-1.91140E+05
 -1        30 6.91042E+05-1.22536E+06 1.14852E+06-1.47968E+05-1.91140E+05 1.86034E+05
 -1        31 1.03656E-05 5.75290E-06 1.48453E-06-2.95936E+05-6.09439E+05-2.16931E-06
 -1        32-6.91042E+05 1.22536E+06-1.14852E+06-1.47968E+05-1.91140E+05-1.86034E+05
 -1        33-6.03187E+06 6.03187E+06-1.12648E-05-3.03990E-07 5.56659E+07 5.56659E+07
 -1        34-1.62169E+06 1.62169E+06-5.50505E-06 2.23903E-07 2.03242E+07 2.03242E+07
 -1        35 2.19171E+06-2.19171E+06-1.51759E-06-3.83348E-07 2.62304E+07 2.62304E+07
 -1        36 4.89428E+05-4.89428E+05 6.30707E-06-1.77967E-06 3.40446E+07 3.40446E+07
 -1        37-2.53573E+05 2.53573E+05 8.71271E-06 4.09078E-07 3.08810E+07 3.08810E+07
 -1        38 5.46108E+05-5.46108E+05 9.46370E-06 2.79352E-06 2.70735E+07 2.70735E+07
 -1        39 7.27790E+05-7.27790E+05 1.15330E-05 2.30376E-06 2.54585E+07 2.54585E+07
 -1        40 5.57060E+05-5.57060E+05 1.05627E-05 3.04653E-06 2.39193E+07 2.39193E+07
 -1        41 5.92349E+05-5.92349E+05 1.00040E-05 4.57522E-06 2.12936E+07 2.12936E+07
 -1        42 7.06260E+05-7.06260E+05 7.02630E-06 6.45495E-06 1.85998E+07 1.85998E+07
 -1        43 7.69205E+05-7.69205E+05 1.01974E-05 3.10944E-06 1.57293E+07 1.57293E+07
 -1        44 8.02444E+05-8.02444E+05 1.39313E-05 1.46934E-07 1.28205E+07 1.28205E+07
 -1        45 8.11662E+05-8.11662E+05 2.08101E-05-5.75808E-07 9.78400E+06 9.78400E+06
 -1        46 6.96879E+05-6.96879E+05 2.68240E-05-3.01054E-06 6.61742E+06 6.61742E+06
 -1        47 8.60236E+05-8.60236E+05 8.66305E-06 3.64702E-06 3.08424E+06 3.08424E+06
 -1        48-8.60236E+05 8.60236E+05-6.67104E-06 2.31278E-06-3.08424E+06 3.08424E+06
 -1        49-6.96879E+05 6.96879E+05-4.57997E-06-5.30734E-06-6.61742E+06 6.61742E+06
 -1        50-8.11662E+05 8.11662E+05-2.46329E-05-2.51508E-06-9.78400E+06 9.78400E+06
 -1        51-8.02444E+05 8.02444E+05-4.68966E-05-2.99361E-06-1.28205E+07 1.28205E+07
 -1        52-7.69205E+05 7.69205E+05-4.08024E-05 3.32261E-07-1.57293E+07 1.57293E+07
 -1        53-7.06260E+05 7.06260E+05-3.85693E-05 3.80171E-06-1.85998E+07 1.85998E+07
 -1        54-5.92349E+05 5.92349E+05-4.15869E-05-6.98761E-07-2.12936E+07 2.12936E+07
 -1        55-5.57060E+05 5.57060E+05-4.22176E-05-2.19653E-06-2.39193E+07 2.39193E+07
 -1        56-7.27790E+05 7.27790E+05-3.41744E-05-5.99049E-07-2.54585E+07 2.54585E+07
 -1        57-5.46108E+05 5.46108E+05-2.77619E-05-1.69759E-06-2.70735E+07 2.70735E+07
 -1        58 2.53573E+05-2.53573E+05-1.75923E-05-8.71567E-07-3.08810E+07 3.08810E+07
 -1        59-4.89428E+05 4.89428E+05-7.21413E-06 4.90167E-07-3.40446E+07 3.40446E+07
 -1        60-2.19171E+06 2.19171E+06 5.40337E-06 7.37468E-07-2.62304E+07 2.62304E+07
 -1        61 1.62169E+06-1.62169E+06 1.84042E-05 1.06127E-06-2.03242E+07 2.03242E+07
 -1        62 6.03187E+06-6.03187E+06 3.27877E-05-7.81539E-07-5.56659E+07 5.56659E+07
 -1        63 6.03187E+06-6.03187E+06-3.05614E-05 1.47594E-07 5.56659E+07-5.56659E+07
 -1        64 1.62169E+06-1.62169E+06-1.61303E-05-2.50016E-06 2.03242E+07-2.03242E+07
 -1        65-2.19171E+06 2.19171E+06-2.76994E-07-1.06909E-06 2.62304E+07-2.62304E+07
 -1        66-4.89428E+05 4.89428E+05 1.32355E-05-7.90098E-07 3.40446E+07-3.40446E+07
 -1        67 2.53573E+05-2.53573E+05 2.37139E-05-1.07248E-06 3.08810E+07-3.08810E+07
 -1        68-5.46108E+05 5.46108E+05 3.80732E-05-1.11028E-07 2.70735E+07-2.70735E+07
 -1        69-7.27790E+05 7.27790E+05 3.88465E-05 2.32805E-06 2.54585E+07-2.54585E+07
 -1        70-5.57060E+05 5.57060E+05 3.70307E-05 5.51994E-06 2.39193E+07-2.39193E+07
 -1        71-5.92349E+05 5.92349E+05 4.31036E-05 4.92178E-07 2.12936E+07-2.12936E+07
 -1        72-7.06260E+05 7.06260E+05 4.82272E-05-4.82465E-06 1.85998E+07-1.85998E+07
 -1        73-7.69205E+05 7.69205E+05 4.15004E-05-7.70200E-07 1.57293E+07-1.57293E+07
 -1        74-8.02444E+05 8.02444E+05 3.03703E-05 3.67530E-06 1.28205E+07-1.28205E+07
 -1        75-8.11662E+05 8.11662E+05 1.86273E-05-2.11651E-06 9.78400E+06-9.78400E+06
 -1        76-6.96879E+05 6.96879E+05 9.72053E-06-5.83862E-06 6.61742E+06-6.61742E+06
 -1        77-8.60236E+05 8.60236E+05 7.10826E-06-5.03138E-06 3.08424E+06-3.08424E+06
 -1        78-6.03187E+06 6.03187E+06 1.33493E-05 5.90197E-07-5.56659E+07-5.56659E+07
 -1        79-1.62169E+06 1.62169E+06 6.59964E-06 2.53349E-08-2.03242E+07-2.03242E+07
 -1        80 2.19171E+06-2.19171E+06 3.58402E-06 2.43163E-08-2.62304E+07-2.62304E+07
 -1        81 4.89428E+05-4.89428E+05 1.10750E-06-4.35211E-07-3.40446E+07-3.40446E+07
 -1        82-2.53573E+05 2.53573E+05-5.09692E-06 5.58070E-07-3.08810E+07-3.08810E+07
 -1        83 5.46108E+05-5.46108E+05-1.31870E-05 1.15497E-06-2.70735E+07-2.70735E+07
 -1        84 7.27790E+05-7.27790E+05-7.73158E-06-1.77242E-06-2.54585E+07-2.54585E+07
 -1        85 5.57060E+05-5.57060E+05-7.71949E-06-3.17721E-06-2.39193E+07-2.39193E+07
 -1        86 5.92349E+05-5.92349E+05-9.22089E-06-7.63581E-07-2.12936E+07-2.12936E+07
 -1        87 7.06260E+05-7.06260E+05-6.03964E-06 3.37630E-07-1.85998E+07-1.85998E+07
 -1        88 7.69205E+05-7.69205E+05-9.10183E-06 1.35764E-06-1.57293E+07-1.57293E+07
 -1        89 8.02444E+05-8.02444E+05-9.49521E-06 5.05423E-06-1.28205E+07-1.28205E+07
 -1        90 8.11662E+05-8.11662E+05-7.76935E-06-2.43241E-06-9.78400E+06-9.78400E+06
 -1        91 6.96879E+05-6.96879E+05-2.10560E-06-8.04377E-06-6.61742E+06-6.61742E+06
 -1        92 8.60236E+05-8.60236E+05-3.80713E-06-1.38722E-06-3.08424E+06-3.08424E+06
 -1        93 1.65572E-06 1.65007E-06 8.00379E-06-1.55397E+06 2.08837E-06 4.96375E+07
 -1        94 3.33460E-06 3.35008E-06 1.68243E-05 1.55397E+06-4.96375E+07 4.57966E-06
 -1        95 1.59773E-07 5.67525E-09 1.22707E-06-3.13773E-08 1.35775E-06 2.82170E-06
 -1        96-2.80165E-06-2.77176E-06-1.42055E-05 1.55397E+06 4.96375E+07 4.15559E-06
 -1        97-1.04238E-06-1.50083E-06-5.50505E-06-1.55397E+06 1.78651E-06-4.96375E+07
 -1        98 7.84203E-06 4.86884E-06 4.74032E-06 1.47968E+05 1.98252E-06 2.41114E+05
 -1        99-3.72130E-06-2.36975E-06-2.54344E-06-1.47968E+05-2.41114E+05-6.78716E-07
 -1       100-4.44922E-06-3.98604E-06-9.04412E-07 7.69278E-06 2.14509E-06-2.55342E-07
 -1       101-6.08561E-08-5.13979E-06 6.42962E-07-1.47968E+05 2.41114E+05-1.10298E-06
 -1       102-7.76391E-06-4.31558E-06-1.37405E-06 1.47968E+05-2.71124E-06-2.41114E+05
 -1       103 8.78703E-07 6.09085E-07 1.11964E-05-2.75463E+06 1.09337E-06 1.38661E+08
 -1       104 2.86862E+06-7.33168E+05-2.47568E+06-1.44125E+05-3.25133E+06 9.98802E+07
 -1       105-8.32370E-07-2.62831E-06 5.56186E-06-2.88250E+05-3.70201E-07 1.79436E+08
 -1       106-2.86862E+06 7.33168E+05 2.47568E+06-1.44125E+05 3.25133E+06 9.98802E+07
 -1       107-2.66568E-06-5.31436E-07 1.90549E-06 1.20536E+06 1.54600E-07 1.66182E+08
 -1       108-1.44671E+06 5.70908E+04 9.87403E+05-2.94160E+04-1.22040E+07 9.24596E+07
 -1       109-5.81110E-06-6.24510E-07-3.79852E-06-5.88320E+04-6.00703E-07 1.50875E+08
 -1       110 1.44671E+06-5.70908E+04-9.87403E+05-2.94160E+04 1.22040E+07 9.24596E+07
 -1       111-6.87916E-06-2.94967E-06-9.17647E-06-2.75940E+05-5.56000E-07 1.45224E+08
 -1       112-2.34109E+05 4.83454E+05 6.36861E+05 1.39213E+05-8.80826E+06 8.36914E+07
 -1       113-8.29485E-06-6.69379E-06-1.24887E-05 2.78425E+05 3.05008E-07 1.40309E+08
 -1       114 2.34109E+05-4.83454E+05-6.36861E+05 1.39213E+05 8.80826E+06 8.36914E+07
 -1       115-1.35900E-06-3.01612E-06-1.52546E-05 3.00942E+05-7.15256E-07 1.29388E+08
 -1       116-7.76103E+05 3.54088E+05 9.29271E+05 7.28504E+04-8.02275E+06 7.11310E+07
 -1       117 5.71852E-06 2.24368E-06-1.47806E-05 1.45701E+05 8.89413E-08 1.18343E+08
 -1       118 7.76103E+05-3.54088E+05-9.29271E+05 7.28504E+04 8.02275E+06 7.11310E+07
 -1       119-2.71539E-07 1.89262E-07-1.52732E-05 1.72805E+05 7.49715E-07 1.05770E+08
 -1       120-7.57340E+05 5.24966E+05 1.09331E+06 1.21093E+05-6.18620E+06 5.59359E+07
 -1       121-4.48167E-06-2.23931E-06-1.68235E-05 2.42186E+05-2.98023E-07 9.32720E+07
 -1       122 7.57340E+05-5.24966E+05-1.09331E+06 1.21093E+05 6.18620E+06 5.59359E+07
 -1       123-1.78505E-06-4.28583E-07-1.21298E-05 2.50981E+05 1.29314E-06 7.87573E+07
 -1       124-9.05482E+05 5.49634E+05 1.21796E+06 1.20366E+05-4.26575E+06 3.85375E+07
 -1       125 8.52684E-07 1.94367E-06-2.82028E-06 2.40733E+05 7.61356E-08 6.42545E+07
 -1       126 9.05482E+05-5.49634E+05-1.21796E+06 1.20366E+05 4.26575E+06 3.85375E+07
 -1       127-8.00355E-06-3.30224E-06-5.44707E-06 2.83291E+05 1.99303E-07 4.83799E+07
 -1       128-8.57388E+05 5.36765E+05 1.25682E+06 1.30782E+05-2.23197E+06 1.96123E+07
 -1       129-1.93788E-05-6.84329E-06-4.76337E-06 2.61564E+05 8.42498E-07 3.26071E+07
 -1       130 8.57388E+05-5.36765E+05-1.25682E+06 1.30782E+05 2.23197E+06 1.96123E+07
 -1       131-5.51867E-07-5.63567E-07 5.76675E-06 2.32718E+05-5.00819E-07 1.66678E+07
 -1       132-2.76510E-06-2.85381E-06-2.14297E-05 2.75463E+06 1.38661E+08 2.13226E-06
 -1       133-7.33168E+05 2.86862E+06-2.47568E+06 1.44125E+05 9.98802E+07 3.25133E+06
 -1       134 2.49175E-06 5.61005E-07-9.28110E-06 2.88250E+05 1.79436E+08-9.80217E-07
 -1       135 7.33168E+05-2.86862E+06 2.47568E+06 1.44125E+05 9.98802E+07-3.25133E+06
 -1       136 2.80875E-06 3.03867E-06 1.55810E-06-1.20536E+06 1.66182E+08 8.32602E-07
 -1       137 5.70908E+04-1.44671E+06 9.87403E+05 2.94160E+04 9.24596E+07 1.22040E+07
 -1       138 4.75039E-06 7.30157E-06 1.20612E-05 5.88320E+04 1.50875E+08 5.64847E-07
 -1       139-5.70908E+04 1.44671E+06-9.87403E+05 2.94160E+04 9.24596E+07-1.22040E+07
 -1       140 4.40283E-07 9.55944E-07 1.82081E-05 2.75940E+05 1.45224E+08-2.29105E-07
 -1       141 4.83454E+05-2.34109E+05 6.36861E+05-1.39213E+05 8.36914E+07 8.80826E+06
 -1       142-3.69284E-06-5.33841E-06 2.06991E-05-2.78425E+05 1.40309E+08 1.01142E-06
 -1       143-4.83454E+05 2.34109E+05-6.36861E+05-1.39213E+05 8.36914E+07-8.80826E+06
 -1       144 1.60048E-06-3.56970E-06 2.57726E-05-3.00942E+05 1.29388E+08 7.94418E-07
 -1       145 3.54088E+05-7.76103E+05 9.29271E+05-7.28504E+04 7.11310E+07 8.02275E+06
 -1       146 5.89953E-06 4.76895E-07 3.06156E-05-1.45701E+05 1.18343E+08 6.74045E-07
 -1       147-3.54088E+05 7.76103E+05-9.29271E+05-7.28504E+04 7.11310E+07-8.02275E+06
 -1       148-5.03875E-07-1.44396E-06 2.56405E-05-1.72805E+05 1.05770E+08-1.49943E-07
 -1       149 5.24966E+05-7.57340E+05 1.09331E+06-1.21093E+05 5.59359E+07 6.18620E+06
 -1       150-4.67931E-06-3.56929E-06 2.51576E-05-2.42186E+05 9.32720E+07 2.48197E-07
 -1       151-5.24966E+05 7.57340E+05-1.09331E+06-1.21093E+05 5.59359E+07-6.18620E+06
 -1       152-1.97708E-06-4.56360E-06 2.27410E-05-2.50981E+05 7.87573E+07 1.13202E-06
 -1       153 5.49634E+05-9.05482E+05 1.21796E+06-1.20366E+05 3.85375E+07 4.26575E+06
 -1       154 1.85195E-06-3.69936E-06 2.04671E-05-2.40733E+05 6.42545E+07 1.95764E-06
 -1       155-5.49634E+05 9.05482E+05-1.21796E+06-1.20366E+05 3.85375E+07-4.26575E+06
 -1       156 5.67042E-06 1.58057E-06 2.11047E-05-2.83291E+05 4.83799E+07-1.68872E-06
 -1       157 5.36765E+05-8.57388E+05 1.25682E+06-1.30782E+05 1.96123E+07 2.23197E+06
 -1       158 7.38882E-06 6.06859E-06 1.60909E-05-2.61564E+05 3.26071E+07-2.34914E-06
 -1       159-5.36765E+05 8.57388E+05-1.25682E+06-1.30782E+05 1.96123E+07-2.23197E+06
 -1       160-4.50440E-07-1.36602E-06 4.57582E-06-2.32718E+05 1.66678E+07 6.20726E-07
 -1       161-4.44241E-07-1.34204E-06-8.63709E-06-2.75463E+06 1.28523E-06-1.38661E+08
 -1       162 2.86862E+06-7.33168E+05-2.47568E+06-1.44125E+05 3.25133E+06-9.98802E+07
 -1       163 7.81147E-07 3.35742E-07-3.72832E-06-2.88250E+05-2.16998E-07-1.79436E+08
 -1       164-2.86862E+06 7.33168E+05 2.47568E+06-1.44125E+05-3.25133E+06-9.98802E+07
 -1       165-3.05008E-06-2.02598E-06-1.45240E-06 1.20536E+06-4.61936E-07-1.66182E+08
 -1       166-1.44671E+06 5.70908E+04 9.87403E+05-2.94160E+04 1.22040E+07-9.24596E+07
 -1       167-7.18073E-06-4.72038E-06 2.71801E-07-5.88320E+04-6.27246E-07-1.50875E+08
 -1       168 1.44671E+06-5.70908E+04-9.87403E+05-2.94160E+04-1.22040E+07-9.24596E+07
 -1       169-6.01343E-07-2.04434E-06 8.55637E-06-2.75940E+05 4.82425E-07-1.45224E+08
 -1       170-2.34109E+05 4.83454E+05 6.36861E+05 1.39213E+05 8.80826E+06-8.36914E+07
 -1       171 5.91418E-06-6.25761E-07 1.66338E-05 2.78425E+05-8.80100E-08-1.40309E+08
 -1       172 2.34109E+05-4.83454E+05-6.36861E+05 1.39213E+05-8.80826E+06-8.36914E+07
 -1       173 5.53345E-06 9.49658E-08 1.76637E-05 3.00942E+05 5.79283E-07-1.29388E+08
 -1       174-7.76103E+05 3.54088E+05 9.29271E+05 7.28504E+04 8.02275E+06-7.11310E+07
 -1       175 7.63847E-06 3.65166E-06 2.16077E-05 1.45701E+05-2.03727E-07-1.18343E+08
 -1       176 7.76103E+05-3.54088E+05-9.29271E+05 7.28504E+04-8.02275E+06-7.11310E+07
 -1       177 2.37074E-06-6.09813E-07 1.77510E-05 1.72805E+05-1.22469E-06-1.05770E+08
 -1       178-7.57340E+05 5.24966E+05 1.09331E+06 1.21093E+05 6.18620E+06-5.59359E+07
 -1       179-3.55617E-06-5.53142E-06 1.02738E-05 2.42186E+05-5.12460E-07-9.32720E+07
 -1       180 7.57340E+05-5.24966E+05-1.09331E+06 1.21093E+05-6.18620E+06-5.59359E+07
 -1       181-6.75517E-06-7.27799E-07 9.20217E-06 2.50981E+05-1.13901E-06-7.87573E+07
 -1       182-9.05482E+05 5.49634E+05 1.21796E+06 1.20366E+05 4.26575E+06-3.85375E+07
 -1       183-9.07958E-06 6.20556E-06 1.00189E-05 2.40733E+05-6.20494E-07-6.42545E+07
 -1       184 9.05482E+05-5.49634E+05-1.21796E+06 1.20366E+05-4.26575E+06-3.85375E+07
 -1       185-1.53692E-06 4.91098E-07 2.21562E-06 2.83291E+05-2.06917E-06-4.83799E+07
 -1       186-8.57388E+05 5.36765E+05 1.25682E+06 1.30782E+05 2.23197E+06-1.96123E+07
 -1       187 9.12318E-06-2.31774E-06-3.91551E-06 2.61564E+05 9.00822E-07-3.26071E+07
 -1       188 8.57388E+05-5.36765E+05-1.25682E+06 1.30782E+05-2.23197E+06-1.96123E+07
 -1       189 1.51421E-06 2.99557E-06-9.54606E-08 2.32718E+05-8.50530E-07-1.66678E+07
 -1       190 4.03868E-06 3.63076E-06 2.48626E-05 2.75463E+06-1.38661E+08 2.25939E-06
 -1       191-7.33168E+05 2.86862E+06-2.47568E+06 1.44125E+05-9.98802E+07-3.25133E+06
 -1       192-1.24762E-06 4.41563E-07 1.30197E-05 2.88250E+05-1.79436E+08-4.26546E-07
 -1       193 7.33168E+05-2.86862E+06 2.47568E+06 1.44125E+05-9.98802E+07 3.25133E+06
 -1       194-1.41468E-06 7.96281E-08 2.44565E-06-1.20536E+06-1.66182E+08 1.86265E-09
 -1       195 5.70908E+04-1.44671E+06 9.87403E+05 2.94160E+04-9.24596E+07-1.22040E+07
 -1       196-1.23386E-06-4.85044E-07-6.53550E-06 5.88320E+04-1.50875E+08 3.05008E-07
 -1       197-5.70908E+04 1.44671E+06-9.87403E+05 2.94160E+04-9.24596E+07 1.22040E+07
 -1       198 1.48042E-06 1.65711E-06-1.31871E-05 2.75940E+05-1.45224E+08 7.98143E-07
 -1       199 4.83454E+05-2.34109E+05 6.36861E+05-1.39213E+05-8.36914E+07-8.80826E+06
 -1       200 4.21741E-06 3.35425E-06-1.94227E-05-2.78425E+05-1.40309E+08 5.33182E-07
 -1       201-4.83454E+05 2.34109E+05-6.36861E+05-1.39213E+05-8.36914E+07 8.80826E+06
 -1       202 1.75909E-06-3.14321E-07-2.23641E-05-3.00942E+05-1.29388E+08 1.41561E-06
 -1       203 3.54088E+05-7.76103E+05 9.29271E+05-7.28504E+04-7.11310E+07-8.02275E+06
 -1       204-1.04700E-06-6.59694E-06-2.68269E-05-1.45701E+05-1.18343E+08-1.18697E-06
 -1       205-3.54088E+05 7.76103E+05-9.29271E+05-7.28504E+04-7.11310E+07 8.02275E+06
 -1       206-4.07078E-06-5.37967E-06-2.92802E-05-1.72805E+05-1.05770E+08-1.71736E-06
 -1       207 5.24966E+05-7.57340E+05 1.09331E+06-1.21093E+05-5.59359E+07-6.18620E+06
 -1       208-9.70450E-06-4.54427E-06-2.99957E-05-2.42186E+05-9.32720E+07 1.68500E-06
 -1       209-5.24966E+05 7.57340E+05-1.09331E+06-1.21093E+05-5.59359E+07 6.18620E+06
 -1       210 2.90864E-07 1.87889E-06-2.42235E-05-2.50981E+05-7.87573E+07-1.46218E-06
 -1       211 5.49634E+05-9.05482E+05 1.21796E+06-1.20366E+05-3.85375E+07-4.26575E+06
 -1       212 1.09197E-05 7.66056E-06-1.78252E-05-2.40733E+05-6.42545E+07 5.63450E-07
 -1       213-5.49634E+05 9.05482E+05-1.21796E+06-1.20366E+05-3.85375E+07 4.26575E+06
 -1       214 1.23892E-06-2.58134E-06-1.74555E-05-2.83291E+05-4.83799E+07 2.65660E-07
 -1       215 5.36765E+05-8.57388E+05 1.25682E+06-1.30782E+05-1.96123E+07-2.23197E+06
 -1       216-5.64328E-06-8.80528E-06-1.55112E-05-2.61564E+05-3.26071E+07-1.91038E-06
 -1       217-5.36765E+05 8.57388E+05-1.25682E+06-1.30782E+05-1.96123E+07 2.23197E+06
 -1       218 3.16487E-06-8.74163E-07-5.85872E-06-2.32718E+05-1.66678E+07 7.11298E-08
 -1       219-2.18861E-08 8.95336E-07 1.43298E-06-3.15763E-07 1.90805E-06 4.72507E-06
 -1       220-3.95812E-07 2.90980E-07 4.04939E-06-1.44125E+05 1.09337E-06 8.28189E+07
 -1       221-4.71482E-07 1.01107E-06 7.55931E-06 1.44125E+05-8.28189E+07 2.78326E-06
 -1       222-4.64075E-07 1.57894E-06 2.04630E-06-5.71786E-07 2.48640E-06 6.25057E-06
 -1       223 6.29458E-07 1.06910E-06-3.64357E-06 1.44125E+05 8.28189E+07 2.76323E-06
 -1       224-9.38890E-08 1.41677E-07-1.08615E-06-1.44125E+05 1.09943E-06-8.28189E+07
 -1       225 5.22203E-07 2.71684E-08 1.42679E-06 2.41373E-07 2.12155E-06 5.19864E-06
 -1       226-2.46841E-06-2.00392E-06-1.74415E-06-2.94160E+04 1.35973E-06 7.06378E+07
 -1       227 7.99017E-07-9.20176E-07-2.40779E-06 2.94160E+04-7.06378E+07 2.51085E-06
 -1       228 2.00787E-06-2.16731E-06 1.00524E-06 2.98021E-07 3.24380E-06 4.92507E-06
 -1       229 2.96714E-06 2.16116E-06 6.17585E-06 2.94160E+04 7.06378E+07 2.84892E-06
 -1       230-2.01960E-06-2.83582E-06 9.86096E-07-2.94160E+04 1.27079E-06-7.06378E+07
 -1       231 1.43978E-06 8.25636E-07 2.66554E-06 4.27432E-07 1.99163E-06 3.40026E-06
 -1       232-3.45923E-06-2.76914E-06-4.85335E-06 1.39213E+05 1.39931E-06 6.54197E+07
 -1       233 1.84041E-06 2.34612E-06-8.56997E-06-1.39213E+05-6.54197E+07 1.37370E-06
 -1       234 6.60639E-07 2.52047E-06 2.78900E-06 1.30154E-06 2.18721E-06 1.96276E-06
 -1       235-9.17469E-07-8.17727E-07 1.19972E-05-1.39213E+05 6.54197E+07 1.36159E-06
 -1       236 2.92954E-06 1.62983E-06 9.71492E-06 1.39213E+05 8.95467E-07-6.54197E+07
 -1       237-2.57563E-06 1.76282E-06 1.20197E-06 8.93789E-07 6.81262E-07 1.67871E-06
 -1       238-7.57602E-07 1.09944E-06-7.63769E-06 7.28504E+04-1.51573E-07 5.52387E+07
 -1       239-3.05671E-06-9.13977E-07-1.26156E-05-7.28504E+04-5.52387E+07 6.37956E-08
 -1       240-6.56945E-06 1.94226E-06 1.78696E-07 1.37307E-06-1.76369E-07 5.29806E-07
 -1       241-1.08648E-06-2.03800E-07 1.46886E-05-7.28504E+04 5.52387E+07 2.09082E-07
 -1       242 8.66668E-07 3.79049E-06 1.12300E-05 7.28504E+04-8.21892E-08-5.52387E+07
 -1       243-8.03153E-07 2.94841E-06 1.13993E-06 7.68693E-07-2.37953E-07-9.79984E-07
 -1       244 2.15732E-07-8.74934E-08-7.48580E-06 1.21093E+05-9.20845E-07 4.35237E+07
 -1       245-1.55313E-06-7.66900E-07-1.36407E-05-1.21093E+05-4.35237E+07 2.32598E-07
 -1       246 4.90662E-06 3.54332E-06 2.26117E-06-3.76211E-07-1.91352E-06-1.05880E-06
 -1       247-7.32172E-07 2.53422E-07 1.34829E-05-1.21093E+05 4.35237E+07-3.24799E-07
 -1       248 6.71978E-07-2.54542E-07 6.47211E-06 1.21093E+05-1.39815E-06-4.35237E+07
 -1       249 1.42298E-06-1.54558E-06-3.66161E-07 2.46801E-07-3.68105E-07-1.18092E-06
 -1       250 7.78993E-07-1.73713E-06-1.82859E-06 1.20366E+05-2.31550E-06 2.99833E+07
 -1       251 2.82468E-06 9.92004E-08-1.05613E-05-1.20366E+05-2.99833E+07 3.35975E-07
 -1       252-9.38959E-07-5.90199E-06-1.55134E-06-8.89510E-07-2.99979E-06-1.08103E-06
 -1       253 2.62215E-06-4.02058E-06 1.03309E-05-1.20366E+05 2.99833E+07-1.56928E-07
 -1       254-5.83140E-06-9.02510E-08 3.87663E-06 1.20366E+05-9.56468E-07-2.99833E+07
 -1       255-3.08586E-06-2.88323E-06-6.49925E-07-3.43254E-06-1.55123E-06-1.68569E-06
 -1       256-1.18020E-05-5.65868E-06-3.88763E-06 1.30782E+05-1.54099E-06 1.52255E+07
 -1       257-1.82749E-06-3.16314E-06-7.30314E-06-1.30782E+05-1.52255E+07-3.01749E-06
 -1       258-4.99635E-06 9.37146E-07-1.74367E-06-5.39865E-06-2.25770E-06-4.20696E-06
 -1       259-2.29607E-06 2.73193E-06 5.84935E-06-1.30782E+05 1.52255E+07-3.31900E-06
 -1       260 1.67782E-06 2.01532E-06-2.19553E-06 1.30782E+05 1.55065E-07-1.52255E+07
 -1       261-4.43686E-06-1.56790E-06-1.70439E-06 7.37392E-07-2.22441E-06-2.55206E-06
 -3
    1PSTEP                        11           1           2          
    1PGM                1.000000E+00                                  
    1PGK                1.040450E+12                                  
    1PHID                         -1                                  
    1PSUBC                         0                                  
    1PMODE                         6                                  
  100CL  107 1.62342E+05         261                     2    7MODAL      1
 -4  DISP        4    1
 -5  D1          1    2    1    0
 -5  D2          1    2    2    0
 -5  D3          1    2    3    0
 -5  ALL         1    2    0    0    1ALL
 -1         1 0.00000E+00 0.00000E+00 0.00000E+00
 -1         2 0.00000E+00 0.00000E+00 0.00000E+00
 -1         3 0.00000E+00 0.00000E+00 0.00000E+00
 -1         4 0.00000E+00 0.00000E+00 0.00000E+00
 -1         5 3.86859E-01 3.86859E-01 5.66245E+03
 -1         6-3.86859E-01 3.86859E-01 5.66245E+03
 -1         7-3.86859E-01-3.86859E-01 5.66245E+03
 -1         8 3.86859E-01-3.86859E-01 5.66245E+03
 -1         9 0.00000E+00 0.00000E+00 0.00000E+00
 -1        10 0.00000E+00 0.00000E+00 0.00000E+00
 -1        11 0.00000E+00 0.00000E+00 0.00000E+00
 -1        12 0.00000E+00 0.00000E+00 0.00000E+00
 -1        13 0.00000E+00 0.00000E+00 0.00000E+00
 -1        14 0.00000E+00 0.00000E+00 0.00000E+00
 -1        15 0.00000E+00 0.00000E+00 0.00000E+00
 -1        16 0.00000E+00 0.00000E+00 0.00000E+00
 -1        17 0.00000E+00 0.00000E+00 0.00000E+00
 -1        18 0.00000E+00 0.00000E+00 0.00000E+00
 -1        19 0.00000E+00 0.00000E+00 0.00000E+00
 -1        20 0.00000E+00 0.00000E+00 0.00000E+00
 -1        21 1.37806E-01 2.15710E-01 5.66809E+03
 -1        22 5.14319E-10 6.46049E-02 5.67008E+03
 -1        23-1.37806E-01 2.15710E-01 5.66809E+03
 -1        24-2.15710E-01 1.37806E-01 5.66809E+03
 -1        25-6.46049E-02-8.17181E-10 5.67008E+03
 -1        26-2.15710E-01-1.37806E-01 5.66809E+03
 -1        27-1.37806E-01-2.15710E-01 5.66809E+03
 -1        28-2.95586E-10-6.46049E-02 5.67008E+03
 -1        29 1.37806E-01-2.15710E-01 5.66809E+03
 -1        30 2.15710E-01-1.37806E-01 5.66809E+03
 -1        31 6.46049E-02-1.61720E-09 5.67008E+03
 -1        32 2.15710E-01 1.37806E-01 5.66809E+03
 -1        33-1.85508E+02 1.85508E+02 5.38824E+02
 -1        34-1.36454E+02 1.36454E+02 1.06576E+03
 -1        35-1.64288E+02 1.64288E+02 1.61424E+03
 -1        36-1.49722E+02 1.49722E+02 2.13613E+03
 -1        37-1.48995E+02 1.48995E+02 2.64461E+03
 -1        38-1.38595E+02 1.38595E+02 3.12406E+03
 -1        39-1.30314E+02 1.30314E+02 3.57404E+03
 -1        40-1.18674E+02 1.18674E+02 3.98886E+03
 -1        41-1.06837E+02 1.06837E+02 4.36525E+03
 -1        42-9.34971E+01 9.34971E+01 4.69898E+03
 -1        43-7.93639E+01 7.93639E+01 4.98722E+03
 -1        44-6.45295E+01 6.45295E+01 5.22691E+03
 -1        45-4.88356E+01 4.88356E+01 5.41571E+03
 -1        46-3.30487E+01 3.30487E+01 5.55175E+03
 -1        47-1.63916E+01 1.63916E+01 5.63431E+03
 -1        48 1.63916E+01 1.63916E+01 5.63431E+03
 -1        49 3.30487E+01 3.30487E+01 5.55175E+03
 -1        50 4.88356E+01 4.88356E+01 5.41571E+03
 -1        51 6.45295E+01 6.45295E+01 5.22691E+03
 -1        52 7.93639E+01 7.93639E+01 4.98722E+03
 -1        53 9.34971E+01 9.34971E+01 4.69898E+03
 -1        54 1.06837E+02 1.06837E+02 4.36525E+03
 -1        55 1.18674E+02 1.18674E+02 3.98886E+03
 -1        56 1.30314E+02 1.30314E+02 3.57404E+03
 -1        57 1.38595E+02 1.38595E+02 3.12406E+03
 -1        58 1.48995E+02 1.48995E+02 2.64461E+03
 -1        59 1.49722E+02 1.49722E+02 2.13613E+03
 -1        60 1.64288E+02 1.64288E+02 1.61424E+03
 -1        61 1.36454E+02 1.36454E+02 1.06576E+03
 -1        62 1.85508E+02 1.85508E+02 5.38824E+02
 -1        63-1.85508E+02-1.85508E+02 5.38824E+02
 -1        64-1.36454E+02-1.36454E+02 1.06576E+03
 -1        65-1.64288E+02-1.64288E+02 1.61424E+03
 -1        66-1.49722E+02-1.49722E+02 2.13613E+03
 -1        67-1.48995E+02-1.48995E+02 2.64461E+03
 -1        68-1.38595E+02-1.38595E+02 3.12406E+03
 -1        69-1.30314E+02-1.30314E+02 3.57404E+03
 -1        70-1.18674E+02-1.18674E+02 3.98886E+03
 -1        71-1.06837E+02-1.06837E+02 4.36525E+03
 -1        72-9.34971E+01-9.34971E+01 4.69898E+03
 -1        73-7.93639E+01-7.93639E+01 4.98722E+03
 -1        74-6.45295E+01-6.45295E+01 5.22691E+03
 -1        75-4.88356E+01-4.88356E+01 5.41571E+03
 -1        76-3.30487E+01-3.30487E+01 5.55175E+03
 -1        77-1.63916E+01-1.63916E+01 5.63431E+03
 -1        78 1.85508E+02-1.85508E+02 5.38824E+02
 -1        79 1.36454E+02-1.36454E+02 1.06576E+03
 -1        80 1.64288E+02-1.64288E+02 1.61424E+03
 -1        81 1.49722E+02-1.49722E+02 2.13613E+03
 -1        82 1.48995E+02-1.48995E+02 2.64461E+03
 -1        83 1.38595E+02-1.38595E+02 3.12406E+03
 -1        84 1.30314E+02-1.30314E+02 3.57404E+03
 -1        85 1.18674E+02-1.18674E+02 3.98886E+03
 -1        86 1.06837E+02-1.06837E+02 4.36525E+03
 -1        87 9.34971E+01-9.34971E+01 4.69898E+03
 -1        88 7.93639E+01-7.93639E+01 4.98722E+03
 -1        89 6.45295E+01-6.45295E+01 5.22691E+03
 -1        90 4.88356E+01-4.88356E+01 5.41571E+03
 -1        91 3.30487E+01-3.30487E+01 5.55175E+03
 -1        92 1.63916E+01-1.63916E+01 5.63431E+03
 -1        93 0.00000E+00 0.00000E+00 0.00000E+00
 -1        94 0.00000E+00 0.00000E+00 0.00000E+00
 -1        95 0.00000E+00 0.00000E+00 0.00000E+00
 -1        96 0.00000E+00 0.00000E+00 0.00000E+00
 -1        97 0.00000E+00 0.00000E+00 0.00000E+00
 -1        98 3.30033E-10 2.65669E-02 5.67616E+03
 -1        99 2.65669E-02-1.42976E-09 5.67616E+03
 -1       100 1.21645E-10-1.21929E-09 5.67816E+03
 -1       101-2.65669E-02-1.01795E-09 5.67616E+03
 -1       102-9.24274E-11-2.65669E-02 5.67616E+03
 -1       103-1.26768E-10 1.85757E+02 5.12144E+02
 -1       104 6.89287E+01 1.39483E+02 1.07143E+03
 -1       105-2.72216E-10 1.43103E+02 1.07962E+03
 -1       106-6.89287E+01 1.39483E+02 1.07143E+03
 -1       107-4.04441E-10 1.61213E+02 1.61427E+03
 -1       108 7.46368E+01 1.52042E+02 2.14034E+03
 -1       109-5.02155E-10 1.54231E+02 2.14262E+03
 -1       110-7.46368E+01 1.52042E+02 2.14034E+03
 -1       111-5.39103E-10 1.47744E+02 2.64767E+03
 -1       112 6.94594E+01 1.39436E+02 3.12772E+03
 -1       113-5.10681E-10 1.40317E+02 3.12928E+03
 -1       114-6.94594E+01 1.39436E+02 3.12772E+03
 -1       115-4.40878E-10 1.29871E+02 3.57917E+03
 -1       116 5.93967E+01 1.18940E+02 3.99339E+03
 -1       117-3.36854E-10 1.19189E+02 3.99496E+03
 -1       118-5.93967E+01 1.18940E+02 3.99339E+03
 -1       119-2.26635E-10 1.06724E+02 4.37157E+03
 -1       120 4.68212E+01 9.35349E+01 4.70423E+03
 -1       121-1.04137E-10 9.35713E+01 4.70599E+03
 -1       122-4.68212E+01 9.35349E+01 4.70423E+03
 -1       123 1.35287E-11 7.93688E+01 4.99449E+03
 -1       124 3.23044E+01 6.44798E+01 5.23262E+03
 -1       125 1.37447E-10 6.44303E+01 5.23462E+03
 -1       126-3.23044E+01 6.44798E+01 5.23262E+03
 -1       127 2.79442E-10 4.89032E+01 5.42361E+03
 -1       128 1.65617E+01 3.29753E+01 5.55811E+03
 -1       129 3.96199E-10 3.28902E+01 5.56007E+03
 -1       130-1.65617E+01 3.29753E+01 5.55811E+03
 -1       131 4.99995E-10 1.64462E+01 5.64251E+03
 -1       132-1.85757E+02-2.51248E-10 5.12144E+02
 -1       133-1.39483E+02 6.89287E+01 1.07143E+03
 -1       134-1.43103E+02-6.53131E-10 1.07962E+03
 -1       135-1.39483E+02-6.89287E+01 1.07143E+03
 -1       136-1.61213E+02-1.03364E-09 1.61427E+03
 -1       137-1.52042E+02 7.46368E+01 2.14034E+03
 -1       138-1.54231E+02-1.31922E-09 2.14262E+03
 -1       139-1.52042E+02-7.46368E+01 2.14034E+03
 -1       140-1.47744E+02-1.39437E-09 2.64767E+03
 -1       141-1.39436E+02 6.94594E+01 3.12772E+03
 -1       142-1.40317E+02-1.24268E-09 3.12928E+03
 -1       143-1.39436E+02-6.94594E+01 3.12772E+03
 -1       144-1.29871E+02-8.93749E-10 3.57917E+03
 -1       145-1.18940E+02 5.93967E+01 3.99339E+03
 -1       146-1.19189E+02-4.13138E-10 3.99496E+03
 -1       147-1.18940E+02-5.93967E+01 3.99339E+03
 -1       148-1.06724E+02 1.00044E-10 4.37157E+03
 -1       149-9.35349E+01 4.68212E+01 4.70423E+03
 -1       150-9.35713E+01 5.50244E-10 4.70599E+03
 -1       151-9.35349E+01-4.68212E+01 4.70423E+03
 -1       152-7.93688E+01 8.11156E-10 4.99449E+03
 -1       153-6.44798E+01 3.23044E+01 5.23262E+03
 -1       154-6.44303E+01 8.57199E-10 5.23462E+03
 -1       155-6.44798E+01-3.23044E+01 5.23262E+03
 -1       156-4.89032E+01 6.54815E-10 5.42361E+03
 -1       157-3.29753E+01 1.65617E+01 5.55811E+03
 -1       158-3.28902E+01 2.58638E-10 5.56007E+03
 -1       159-3.29753E+01-1.65617E+01 5.55811E+03
 -1       160-1.64462E+01-2.50338E-10 5.64251E+03
 -1       161 8.11013E-11-1.85757E+02 5.12144E+02
 -1       162-6.89287E+01-1.39483E+02 1.07143E+03
 -1       163 1.41966E-10-1.43103E+02 1.07962E+03
 -1       164 6.89287E+01-1.39483E+02 1.07143E+03
 -1       165 1.92586E-10-1.61213E+02 1.61427E+03
 -1       166-7.46368E+01-1.52042E+02 2.14034E+03
 -1       167 2.35787E-10-1.54231E+02 2.14262E+03
 -1       168 7.46368E+01-1.52042E+02 2.14034E+03
 -1       169 2.76941E-10-1.47744E+02 2.64767E+03
 -1       170-6.94594E+01-1.39436E+02 3.12772E+03
 -1       171 3.03658E-10-1.40317E+02 3.12928E+03
 -1       172 6.94594E+01-1.39436E+02 3.12772E+03
 -1       173 3.23666E-10-1.29871E+02 3.57917E+03
 -1       174-5.93967E+01-1.18940E+02 3.99339E+03
 -1       175 3.19460E-10-1.19189E+02 3.99496E+03
 -1       176 5.93967E+01-1.18940E+02 3.99339E+03
 -1       177 2.76827E-10-1.06724E+02 4.37157E+03
 -1       178-4.68212E+01-9.35349E+01 4.70423E+03
 -1       179 1.97247E-10-9.35713E+01 4.70599E+03
 -1       180 4.68212E+01-9.35349E+01 4.70423E+03
 -1       181 9.68043E-11-7.93688E+01 4.99449E+03
 -1       182-3.23044E+01-6.44798E+01 5.23262E+03
 -1       183-2.18137E-11-6.44303E+01 5.23462E+03
 -1       184 3.23044E+01-6.44798E+01 5.23262E+03
 -1       185-1.31763E-10-4.89032E+01 5.42361E+03
 -1       186-1.65617E+01-3.29753E+01 5.55811E+03
 -1       187-2.14982E-10-3.28902E+01 5.56007E+03
 -1       188 1.65617E+01-3.29753E+01 5.55811E+03
 -1       189-2.73531E-10-1.64462E+01 5.64251E+03
 -1       190 1.85757E+02-4.42810E-11 5.12144E+02
 -1       191 1.39483E+02-6.89287E+01 1.07143E+03
 -1       192 1.43103E+02-2.40789E-10 1.07962E+03
 -1       193 1.39483E+02 6.89287E+01 1.07143E+03
 -1       194 1.61213E+02-4.36557E-10 1.61427E+03
 -1       195 1.52042E+02-7.46368E+01 2.14034E+03
 -1       196 1.54231E+02-5.80940E-10 2.14262E+03
 -1       197 1.52042E+02 7.46368E+01 2.14034E+03
 -1       198 1.47744E+02-5.78893E-10 2.64767E+03
 -1       199 1.39436E+02-6.94594E+01 3.12772E+03
 -1       200 1.40317E+02-4.23597E-10 3.12928E+03
 -1       201 1.39436E+02 6.94594E+01 3.12772E+03
 -1       202 1.29871E+02-1.29717E-10 3.57917E+03
 -1       203 1.18940E+02-5.93967E+01 3.99339E+03
 -1       204 1.19189E+02 2.36696E-10 3.99496E+03
 -1       205 1.18940E+02 5.93967E+01 3.99339E+03
 -1       206 1.06724E+02 6.02796E-10 4.37157E+03
 -1       207 9.35349E+01-4.68212E+01 4.70423E+03
 -1       208 9.35713E+01 8.57739E-10 4.70599E+03
 -1       209 9.35349E+01 4.68212E+01 4.70423E+03
 -1       210 7.93688E+01 8.83340E-10 4.99449E+03
 -1       211 6.44798E+01-3.23044E+01 5.23262E+03
 -1       212 6.44303E+01 6.97270E-10 5.23462E+03
 -1       213 6.44798E+01 3.23044E+01 5.23262E+03
 -1       214 4.89032E+01 2.44825E-10 5.42361E+03
 -1       215 3.29753E+01-1.65617E+01 5.55811E+03
 -1       216 3.28902E+01-3.30033E-10 5.56007E+03
 -1       217 3.29753E+01 1.65617E+01 5.55811E+03
 -1       218 1.64462E+01-1.00647E-09 5.64251E+03
 -1       219-2.41016E-11-1.62515E-10 4.84035E+02
 -1       220-1.69772E-10 7.18240E+01 1.08633E+03
 -1       221 7.18240E+01-3.46063E-10 1.08633E+03
 -1       222-6.64073E-11-4.47699E-10 1.09524E+03
 -1       223-7.18240E+01-5.52632E-10 1.08633E+03
 -1       224 3.73177E-11-7.18240E+01 1.08633E+03
 -1       225-1.03380E-10-7.27141E-10 1.61439E+03
 -1       226-3.16618E-10 7.69844E+01 2.14605E+03
 -1       227 7.69844E+01-7.45104E-10 2.14605E+03
 -1       228-1.31152E-10-9.24501E-10 2.14770E+03
 -1       229-7.69844E+01-1.11663E-09 2.14605E+03
 -1       230 5.50529E-11-7.69844E+01 2.14605E+03
 -1       231-1.29376E-10-9.62245E-10 2.65164E+03
 -1       232-3.07352E-10 7.02882E+01 3.13246E+03
 -1       233 7.02882E+01-6.16524E-10 3.13246E+03
 -1       234-1.02915E-10-8.23206E-10 3.13349E+03
 -1       235-7.02882E+01-1.02835E-09 3.13246E+03
 -1       236 1.00243E-10-7.02882E+01 3.13246E+03
 -1       237-5.47118E-11-4.99298E-10 3.58461E+03
 -1       238-1.74992E-10 5.96699E+01 3.99925E+03
 -1       239 5.96699E+01 7.62270E-11 3.99925E+03
 -1       240-1.15676E-11-9.04947E-11 4.00057E+03
 -1       241-5.96699E+01-2.55568E-10 3.99925E+03
 -1       242 1.56490E-10-5.96699E+01 3.99925E+03
 -1       243 2.71427E-11 3.44926E-10 4.37806E+03
 -1       244-3.00702E-11 4.68580E+01 4.71111E+03
 -1       245 4.68580E+01 7.55506E-10 4.71111E+03
 -1       246 4.28884E-11 6.61998E-10 4.71277E+03
 -1       247-4.68580E+01 6.07088E-10 4.71111E+03
 -1       248 1.20679E-10-4.68580E+01 4.71111E+03
 -1       249 5.90461E-11 8.29459E-10 5.00183E+03
 -1       250 9.89075E-11 3.22603E+01 5.24031E+03
 -1       251 3.22603E+01 7.04233E-10 5.24031E+03
 -1       252 5.60760E-11 7.41807E-10 5.24218E+03
 -1       253-3.22603E+01 7.86997E-10 5.24031E+03
 -1       254 2.19842E-11-3.22603E+01 5.24031E+03
 -1       255 7.59428E-11 4.26724E-10 5.43160E+03
 -1       256 2.46644E-10 1.64726E+01 5.56626E+03
 -1       257 1.64726E+01-2.13390E-10 5.56626E+03
 -1       258 1.01117E-10-6.89511E-11 5.56833E+03
 -1       259-1.64726E+01 9.00400E-11 5.56626E+03
 -1       260-5.69003E-11-1.64726E+01 5.56626E+03
 -1       261 1.01679E-10-6.31189E-10 5.65068E+03
 -3
    1PSTEP                        12           1           2          
    1PGM                1.000000E+00                                  
    1PGK                1.040450E+12                                  
    1PHID                         -1                                  
    1PSUBC                         0                                  
    1PMODE                         6                                  
  100CL  107 1.62342E+05         261                     2    7MODAL      1
 -4  STRESS      6    1
 -5  SXX         1    4    1    1
 -5  SYY         1    4    2    2
 -5  SZZ         1    4    3    3
 -5  SXY         1    4    1    2
 -5  SYZ         1    4    2    3
 -5  SZX         1    4    3    1
 -1         1 6.82896E+07 6.82896E+07 2.68815E+08-6.63551E+05 4.53690E+07 4.53690E+07
 -1         2 6.82896E+07 6.82896E+07 2.68815E+08 6.63551E+05 4.53690E+07-4.53690E+07
 -1         3 6.82896E+07 6.82896E+07 2.68815E+08-6.63551E+05-4.53690E+07-4.53690E+07
 -1         4 6.82896E+07 6.82896E+07 2.68815E+08 6.63551E+05-4.53690E+07 4.53690E+07
 -1         5 2.97261E+02 2.97261E+02 2.92866E+05 2.70872E+04-2.82907E+04-2.82907E+04
 -1         6 2.97261E+02 2.97261E+02 2.92866E+05-2.70872E+04-2.82907E+04 2.82907E+04
 -1         7 2.97261E+02 2.97261E+02 2.92866E+05 2.70872E+04 2.82907E+04 2.82907E+04
 -1         8 2.97261E+02 2.97261E+02 2.92866E+05-2.70872E+04 2.82907E+04-2.82907E+04
 -1         9 6.12936E+07 6.16250E+07 2.52159E+08-4.97850E+05 4.50043E+07 2.09002E+07
 -1        10 5.42977E+07 5.49604E+07 2.35503E+08 1.08455E-06 4.46395E+07-1.83065E-05
 -1        11 6.12936E+07 6.16250E+07 2.52159E+08 4.97850E+05 4.50043E+07-2.09002E+07
 -1        12 6.16250E+07 6.12936E+07 2.52159E+08 4.97850E+05 2.09002E+07-4.50043E+07
 -1        13 5.49604E+07 5.42977E+07 2.35503E+08-3.41632E-06-2.40244E-05-4.46395E+07
 -1        14 6.16250E+07 6.12936E+07 2.52159E+08-4.97850E+05-2.09002E+07-4.50043E+07
 -1        15 6.12936E+07 6.16250E+07 2.52159E+08-4.97850E+05-4.50043E+07-2.09002E+07
 -1        16 5.42977E+07 5.49604E+07 2.35503E+08-1.13447E-07-4.46395E+07 1.54243E-05
 -1        17 6.12936E+07 6.16250E+07 2.52159E+08 4.97850E+05-4.50043E+07 2.09002E+07
 -1        18 6.16250E+07 6.12936E+07 2.52159E+08 4.97850E+05-2.09002E+07 4.50043E+07
 -1        19 5.49604E+07 5.42977E+07 2.35503E+08 2.43410E-06 9.48738E-06 4.46395E+07
 -1        20 6.16250E+07 6.12936E+07 2.52159E+08-4.97850E+05 2.09002E+07 4.50043E+07
 -1        21-3.97201E+03-8.26904E+03 1.48998E+05-4.53405E+02-9.66774E+03 1.96690E+04
 -1        22-8.24129E+03-1.68353E+04 5.13041E+03 3.64165E-06 8.95525E+03-2.17991E-06
 -1        23-3.97201E+03-8.26904E+03 1.48998E+05 4.53405E+02-9.66774E+03-1.96690E+04
 -1        24-8.26904E+03-3.97201E+03 1.48998E+05 4.53405E+02 1.96690E+04 9.66774E+03
 -1        25-1.68353E+04-8.24129E+03 5.13041E+03-4.40471E-06-1.40092E-06-8.95525E+03
 -1        26-8.26904E+03-3.97201E+03 1.48998E+05-4.53405E+02-1.96690E+04 9.66774E+03
 -1        27-3.97201E+03-8.26904E+03 1.48998E+05-4.53405E+02 9.66774E+03-1.96690E+04
 -1        28-8.24129E+03-1.68353E+04 5.13041E+03 3.59292E-06-8.95525E+03 1.60153E-06
 -1        29-3.97201E+03-8.26904E+03 1.48998E+05 4.53405E+02 9.66774E+03 1.96690E+04
 -1        30-8.26904E+03-3.97201E+03 1.48998E+05 4.53405E+02-1.96690E+04-9.66774E+03
 -1        31-1.68353E+04-8.24129E+03 5.13041E+03-1.21862E-05-2.34303E-06 8.95525E+03
 -1        32-8.26904E+03-3.97201E+03 1.48998E+05-4.53405E+02 1.96690E+04-9.66774E+03
 -1        33 1.15146E+07 1.15146E+07 2.29856E+08-1.74234E+05 8.16197E+06-8.16197E+06
 -1        34-1.41673E+07-1.41673E+07 2.18556E+08-4.10612E+05-1.03985E+07 1.03985E+07
 -1        35 3.54057E+06 3.54057E+06 2.27050E+08 2.46798E+05 1.50278E+06-1.50278E+06
 -1        36-3.87045E+06-3.87045E+06 2.14178E+08-1.59561E+05-1.59985E+06 1.59985E+06
 -1        37 2.29978E+05 2.29978E+05 2.07188E+08-1.01811E+05 4.07520E+05-4.07520E+05
 -1        38-4.47860E+05-4.47860E+05 1.95218E+08 1.15600E+05-4.19072E+05 4.19072E+05
 -1        39 1.21676E+05 1.21676E+05 1.81418E+08-1.53929E+04 5.90410E+04-5.90410E+04
 -1        40-2.10014E+05-2.10014E+05 1.66558E+08 3.13476E+04-7.35585E+04 7.35585E+04
 -1        41-3.18231E+04-3.18231E+04 1.48869E+08-1.38247E+04 3.03708E+04-3.03708E+04
 -1        42-4.07452E+04-4.07452E+04 1.30984E+08 1.82441E+04-3.20627E+04 3.20627E+04
 -1        43-1.71536E+04-1.71536E+04 1.10652E+08-2.29473E+03 8.44806E+03-8.44806E+03
 -1        44-3.14736E+04-3.14736E+04 9.02725E+07 2.59896E+03-3.25949E+04 3.25949E+04
 -1        45-1.64279E+04-1.64279E+04 6.81574E+07 2.35115E+03 1.34207E+04-1.34207E+04
 -1        46-2.50384E+04-2.50384E+04 4.59625E+07 1.19740E+04 4.67154E+04-4.67154E+04
 -1        47 1.07243E+04 1.07243E+04 2.30929E+07-1.37684E+04-2.20959E+04 2.20959E+04
 -1        48 1.07243E+04 1.07243E+04 2.30929E+07 1.37684E+04-2.20959E+04-2.20959E+04
 -1        49-2.50384E+04-2.50384E+04 4.59625E+07-1.19740E+04 4.67154E+04 4.67154E+04
 -1        50-1.64279E+04-1.64279E+04 6.81574E+07-2.35115E+03 1.34207E+04 1.34207E+04
 -1        51-3.14736E+04-3.14736E+04 9.02725E+07-2.59896E+03-3.25949E+04-3.25949E+04
 -1        52-1.71536E+04-1.71536E+04 1.10652E+08 2.29473E+03 8.44806E+03 8.44806E+03
 -1        53-4.07452E+04-4.07452E+04 1.30984E+08-1.82441E+04-3.20627E+04-3.20627E+04
 -1        54-3.18231E+04-3.18231E+04 1.48869E+08 1.38247E+04 3.03708E+04 3.03708E+04
 -1        55-2.10014E+05-2.10014E+05 1.66558E+08-3.13476E+04-7.35585E+04-7.35585E+04
 -1        56 1.21676E+05 1.21676E+05 1.81418E+08 1.53929E+04 5.90410E+04 5.90410E+04
 -1        57-4.47860E+05-4.47860E+05 1.95218E+08-1.15600E+05-4.19072E+05-4.19072E+05
 -1        58 2.29978E+05 2.29978E+05 2.07188E+08 1.01811E+05 4.07520E+05 4.07520E+05
 -1        59-3.87045E+06-3.87045E+06 2.14178E+08 1.59561E+05-1.59985E+06-1.59985E+06
 -1        60 3.54057E+06 3.54057E+06 2.27050E+08-2.46798E+05 1.50278E+06 1.50278E+06
 -1        61-1.41673E+07-1.41673E+07 2.18556E+08 4.10612E+05-1.03985E+07-1.03985E+07
 -1        62 1.15146E+07 1.15146E+07 2.29856E+08 1.74234E+05 8.16197E+06 8.16197E+06
 -1        63 1.15146E+07 1.15146E+07 2.29856E+08 1.74234E+05-8.16197E+06-8.16197E+06
 -1        64-1.41673E+07-1.41673E+07 2.18556E+08 4.10612E+05 1.03985E+07 1.03985E+07
 -1        65 3.54057E+06 3.54057E+06 2.27050E+08-2.46798E+05-1.50278E+06-1.50278E+06
 -1        66-3.87045E+06-3.87045E+06 2.14178E+08 1.59561E+05 1.59985E+06 1.59985E+06
 -1        67 2.29978E+05 2.29978E+05 2.07188E+08 1.01811E+05-4.07520E+05-4.07520E+05
 -1        68-4.47860E+05-4.47860E+05 1.95218E+08-1.15600E+05 4.19072E+05 4.19072E+05
 -1        69 1.21676E+05 1.21676E+05 1.81418E+08 1.53929E+04-5.90410E+04-5.90410E+04
 -1        70-2.10014E+05-2.10014E+05 1.66558E+08-3.13476E+04 7.35585E+04 7.35585E+04
 -1        71-3.18231E+04-3.18231E+04 1.48869E+08 1.38247E+04-3.03708E+04-3.03708E+04
 -1        72-4.07452E+04-4.07452E+04 1.30984E+08-1.82441E+04 3.20627E+04 3.20627E+04
 -1        73-1.71536E+04-1.71536E+04 1.10652E+08 2.29473E+03-8.44806E+03-8.44806E+03
 -1        74-3.14736E+04-3.14736E+04 9.02725E+07-2.59896E+03 3.25949E+04 3.25949E+04
 -1        75-1.64279E+04-1.64279E+04 6.81574E+07-2.35115E+03-1.34207E+04-1.34207E+04
 -1        76-2.50384E+04-2.50384E+04 4.59625E+07-1.19740E+04-4.67154E+04-4.67154E+04
 -1        77 1.07243E+04 1.07243E+04 2.30929E+07 1.37684E+04 2.20959E+04 2.20959E+04
 -1        78 1.15146E+07 1.15146E+07 2.29856E+08-1.74234E+05-8.16197E+06 8.16197E+06
 -1        79-1.41673E+07-1.41673E+07 2.18556E+08-4.10612E+05 1.03985E+07-1.03985E+07
 -1        80 3.54057E+06 3.54057E+06 2.27050E+08 2.46798E+05-1.50278E+06 1.50278E+06
 -1        81-3.87045E+06-3.87045E+06 2.14178E+08-1.59561E+05 1.59985E+06-1.59985E+06
 -1        82 2.29978E+05 2.29978E+05 2.07188E+08-1.01811E+05-4.07520E+05 4.07520E+05
 -1        83-4.47860E+05-4.47860E+05 1.95218E+08 1.15600E+05 4.19072E+05-4.19072E+05
 -1        84 1.21676E+05 1.21676E+05 1.81418E+08-1.53929E+04-5.90410E+04 5.90410E+04
 -1        85-2.10014E+05-2.10014E+05 1.66558E+08 3.13476E+04 7.35585E+04-7.35585E+04
 -1        86-3.18231E+04-3.18231E+04 1.48869E+08-1.38247E+04-3.03708E+04 3.03708E+04
 -1        87-4.07452E+04-4.07452E+04 1.30984E+08 1.82441E+04 3.20627E+04-3.20627E+04
 -1        88-1.71536E+04-1.71536E+04 1.10652E+08-2.29473E+03-8.44806E+03 8.44806E+03
 -1        89-3.14736E+04-3.14736E+04 9.02725E+07 2.59896E+03 3.25949E+04-3.25949E+04
 -1        90-1.64279E+04-1.64279E+04 6.81574E+07 2.35115E+03-1.34207E+04 1.34207E+04
 -1        91-2.50384E+04-2.50384E+04 4.59625E+07 1.19740E+04-4.67154E+04 4.67154E+04
 -1        92 1.07243E+04 1.07243E+04 2.30929E+07-1.37684E+04 2.20959E+04-2.20959E+04
 -1        93 4.71814E+07 4.75128E+07 2.17794E+08 5.09404E-07 2.03995E+07-1.00781E-05
 -1        94 4.75128E+07 4.71814E+07 2.17794E+08 4.50615E-07-1.50874E-06 2.03995E+07
 -1        95 4.00651E+07 4.00651E+07 2.00084E+08 1.44837E-08-1.25235E-05-1.85636E-06
 -1        96 4.75128E+07 4.71814E+07 2.17794E+08-9.27248E-07-1.82837E-05-2.03995E+07
 -1        97 4.71814E+07 4.75128E+07 2.17794E+08-9.34233E-09-2.03995E+07 6.78049E-06
 -1        98-8.03794E+03-1.23350E+04 9.38161E+03-1.53085E-07 6.67571E+03 6.52715E-07
 -1        99-1.23350E+04-8.03794E+03 9.38161E+03-6.63254E-06-2.18573E-06 6.67571E+03
 -1       100-7.83459E+03-7.83459E+03 1.36328E+04-2.34901E-06-2.54741E-06 2.96733E-06
 -1       101-1.23350E+04-8.03794E+03 9.38161E+03-4.01195E-06-2.23365E-06-6.67571E+03
 -1       102-8.03794E+03-1.23350E+04 9.38161E+03 1.42136E-06-6.67571E+03 2.02543E-06
 -1       103 1.11147E+07 1.13322E+07 2.32638E+08 7.67250E-07 8.62047E+06-2.53610E-05
 -1       104-1.32724E+07-1.30854E+07 2.24391E+08 4.76295E+05-1.06292E+07-4.84645E+06
 -1       105-1.23775E+07-1.20036E+07 2.30225E+08-1.15004E-07-1.08599E+07-3.18909E-05
 -1       106-1.32724E+07-1.30854E+07 2.24391E+08-4.76295E+05-1.06292E+07 4.84645E+06
 -1       107 1.43451E+06 1.89653E+06 2.24350E+08-8.74497E-07 1.40079E+06-2.37547E-05
 -1       108-2.71285E+06-2.96982E+06 2.15880E+08 8.22557E+04-1.43334E+06-9.48779E+05
 -1       109-1.55524E+06-2.06918E+06 2.17581E+08-8.11349E-07-1.26684E+06-1.57882E-05
 -1       110-2.71285E+06-2.96982E+06 2.15880E+08-8.22557E+04-1.43334E+06 9.48779E+05
 -1       111 2.07638E+05 1.00112E+05 2.06893E+08-8.52524E-08 1.90709E+05-5.09823E-06
 -1       112-5.36600E+05-3.07328E+05 1.95688E+08-7.50942E+04-2.58982E+05-2.09801E+05
 -1       113-6.25340E+05-1.66796E+05 1.96158E+08 5.83390E-07-9.88907E+04 4.96073E-06
 -1       114-5.36600E+05-3.07328E+05 1.95688E+08 7.50942E+04-2.58982E+05 2.09801E+05
 -1       115-3.01007E+05-5.01419E+04 1.81422E+08-1.56885E-06-3.30415E+04 1.19841E-05
 -1       116-2.30039E+05-1.19600E+05 1.66735E+08-2.80833E+04-1.14115E+04-4.48258E+04
 -1       117-2.50064E+05-2.91851E+04 1.66913E+08-4.09619E-06 5.07355E+04 1.80993E-05
 -1       118-2.30039E+05-1.19600E+05 1.66735E+08 2.80833E+04-1.14115E+04 4.48258E+04
 -1       119-2.22423E+05-4.89264E+04 1.48991E+08-3.02981E-06-8.92828E+03 2.29417E-05
 -1       120-1.30439E+05-2.86595E+04 1.31079E+08-1.33840E+04-7.29757E+03-1.72413E+04
 -1       121-2.20133E+05-1.65737E+04 1.31173E+08-1.66521E-06 1.74676E+04 2.80357E-05
 -1       122-1.30439E+05-2.86595E+04 1.31079E+08 1.33840E+04-7.29757E+03 1.72413E+04
 -1       123-1.80105E+05-2.94305E+04 1.10756E+08 4.71548E-07-6.57263E+03 2.95990E-05
 -1       124-8.14205E+04-2.01119E+04 9.03246E+07-4.24993E+03-1.58086E+04-8.53395E+03
 -1       125-1.31368E+05-8.75030E+03 9.03768E+07 1.69919E-06 9.77641E+02 3.39410E-05
 -1       126-8.14205E+04-2.01119E+04 9.03246E+07 4.24993E+03-1.58086E+04 8.53395E+03
 -1       127-1.24043E+05-3.11509E+04 6.82216E+07 1.95817E-06 7.29784E+03 2.85649E-05
 -1       128-4.98680E+04-1.43835E+04 4.60306E+07-4.48002E+03 2.16435E+04-1.82544E+03
 -1       129-7.46977E+04-3.72854E+03 4.60988E+07 1.69422E-06-3.42851E+03 2.58278E-05
 -1       130-4.98680E+04-1.43835E+04 4.60306E+07 4.48002E+03 2.16435E+04 1.82544E+03
 -1       131-1.89056E+04 4.80980E+03 2.30079E+07 2.01361E-06-6.35523E+03 1.40665E-05
 -1       132 1.13322E+07 1.11147E+07 2.32638E+08-2.35974E-06-4.15030E-05-8.62047E+06
 -1       133-1.30854E+07-1.32724E+07 2.24391E+08-4.76295E+05-4.84645E+06 1.06292E+07
 -1       134-1.20036E+07-1.23775E+07 2.30225E+08 5.52798E-07-5.51826E-05 1.08599E+07
 -1       135-1.30854E+07-1.32724E+07 2.24391E+08 4.76295E+05 4.84645E+06 1.06292E+07
 -1       136 1.89653E+06 1.43451E+06 2.24350E+08 1.57471E-06-3.98079E-05-1.40079E+06
 -1       137-2.96982E+06-2.71285E+06 2.15880E+08-8.22557E+04-9.48779E+05 1.43334E+06
 -1       138-2.06918E+06-1.55524E+06 2.17581E+08 3.04091E-07-2.61863E-05 1.26684E+06
 -1       139-2.96982E+06-2.71285E+06 2.15880E+08 8.22557E+04 9.48779E+05 1.43334E+06
 -1       140 1.00112E+05 2.07638E+05 2.06893E+08 7.87732E-07-4.66246E-06-1.90709E+05
 -1       141-3.07328E+05-5.36600E+05 1.95688E+08 7.50942E+04-2.09801E+05 2.58982E+05
 -1       142-1.66796E+05-6.25340E+05 1.96158E+08 1.48345E-06 1.44918E-05 9.88907E+04
 -1       143-3.07328E+05-5.36600E+05 1.95688E+08-7.50942E+04 2.09801E+05 2.58982E+05
 -1       144-5.01419E+04-3.01007E+05 1.81422E+08 2.74099E-06 2.68170E-05 3.30415E+04
 -1       145-1.19600E+05-2.30039E+05 1.66735E+08 2.80833E+04-4.48258E+04 1.14115E+04
 -1       146-2.91851E+04-2.50064E+05 1.66913E+08 3.57087E-06 3.89562E-05-5.07355E+04
 -1       147-1.19600E+05-2.30039E+05 1.66735E+08-2.80833E+04 4.48258E+04 1.14115E+04
 -1       148-4.89264E+04-2.22423E+05 1.48991E+08-1.63214E-06 4.16517E-05 8.92828E+03
 -1       149-2.86595E+04-1.30439E+05 1.31079E+08 1.33840E+04-1.72413E+04 7.29757E+03
 -1       150-1.65737E+04-2.20133E+05 1.31173E+08-5.98459E-06 4.23455E-05-1.74676E+04
 -1       151-2.86595E+04-1.30439E+05 1.31079E+08-1.33840E+04 1.72413E+04 7.29757E+03
 -1       152-2.94305E+04-1.80105E+05 1.10756E+08-1.89149E-06 3.26918E-05 6.57263E+03
 -1       153-2.01119E+04-8.14205E+04 9.03246E+07 4.24993E+03-8.53395E+03 1.58086E+04
 -1       154-8.75030E+03-1.31368E+05 9.03768E+07 3.01643E-06 2.45929E-05-9.77641E+02
 -1       155-2.01119E+04-8.14205E+04 9.03246E+07-4.24993E+03 8.53395E+03 1.58086E+04
 -1       156-3.11509E+04-1.24043E+05 6.82216E+07 4.98260E-06 1.32224E-05-7.29784E+03
 -1       157-1.43835E+04-4.98680E+04 4.60306E+07 4.48002E+03-1.82544E+03-2.16435E+04
 -1       158-3.72854E+03-7.46977E+04 4.60988E+07 5.41385E-06 4.45003E-06 3.42851E+03
 -1       159-1.43835E+04-4.98680E+04 4.60306E+07-4.48002E+03 1.82544E+03-2.16435E+04
 -1       160 4.80980E+03-1.89056E+04 2.30079E+07 2.43718E-07 2.34531E-06 6.35523E+03
 -1       161 1.11147E+07 1.13322E+07 2.32638E+08 2.78524E-08-8.62047E+06 1.90603E-05
 -1       162-1.32724E+07-1.30854E+07 2.24391E+08 4.76295E+05 1.06292E+07 4.84645E+06
 -1       163-1.23775E+07-1.20036E+07 2.30225E+08-1.37516E-07 1.08599E+07 2.31192E-05
 -1       164-1.32724E+07-1.30854E+07 2.24391E+08-4.76295E+05 1.06292E+07-4.84645E+06
 -1       165 1.43451E+06 1.89653E+06 2.24350E+08-1.17980E-07-1.40079E+06 1.70611E-05
 -1       166-2.71285E+06-2.96982E+06 2.15880E+08 8.22557E+04 1.43334E+06 9.48779E+05
 -1       167-1.55524E+06-2.06918E+06 2.17581E+08 5.10176E-07 1.26684E+06 1.09649E-05
 -1       168-2.71285E+06-2.96982E+06 2.15880E+08-8.22557E+04 1.43334E+06-9.48779E+05
 -1       169 2.07638E+05 1.00112E+05 2.06893E+08 8.52233E-08-1.90709E+05 5.23942E-06
 -1       170-5.36600E+05-3.07328E+05 1.95688E+08-7.50942E+04 2.58982E+05 2.09801E+05
 -1       171-6.25340E+05-1.66796E+05 1.96158E+08-8.22954E-07 9.88907E+04 3.79150E-08
 -1       172-5.36600E+05-3.07328E+05 1.95688E+08 7.50942E+04 2.58982E+05-2.09801E+05
 -1       173-3.01007E+05-5.01419E+04 1.81422E+08-1.16035E-06 3.30415E+04-5.40027E-06
 -1       174-2.30039E+05-1.19600E+05 1.66735E+08-2.80833E+04 1.14115E+04 4.48258E+04
 -1       175-2.50064E+05-2.91851E+04 1.66913E+08-1.08095E-06-5.07355E+04-1.28341E-05
 -1       176-2.30039E+05-1.19600E+05 1.66735E+08 2.80833E+04 1.14115E+04-4.48258E+04
 -1       177-2.22423E+05-4.89264E+04 1.48991E+08-4.59096E-07 8.92828E+03-1.98564E-05
 -1       178-1.30439E+05-2.86595E+04 1.31079E+08-1.33840E+04 7.29757E+03 1.72413E+04
 -1       179-2.20133E+05-1.65737E+04 1.31173E+08 1.52736E-08-1.74676E+04-2.51287E-05
 -1       180-1.30439E+05-2.86595E+04 1.31079E+08 1.33840E+04 7.29757E+03-1.72413E+04
 -1       181-1.80105E+05-2.94305E+04 1.10756E+08-7.45451E-07 6.57263E+03-2.87441E-05
 -1       182-8.14205E+04-2.01119E+04 9.03246E+07-4.24993E+03 1.58086E+04 8.53395E+03
 -1       183-1.31368E+05-8.75030E+03 9.03768E+07-1.83182E-06-9.77641E+02-3.23808E-05
 -1       184-8.14205E+04-2.01119E+04 9.03246E+07 4.24993E+03 1.58086E+04-8.53395E+03
 -1       185-1.24043E+05-3.11509E+04 6.82216E+07-5.68536E-06-7.29784E+03-2.59246E-05
 -1       186-4.98680E+04-1.43835E+04 4.60306E+07-4.48002E+03-2.16435E+04 1.82544E+03
 -1       187-7.46977E+04-3.72854E+03 4.60988E+07-8.24590E-06 3.42851E+03-2.20567E-05
 -1       188-4.98680E+04-1.43835E+04 4.60306E+07 4.48002E+03-2.16435E+04-1.82544E+03
 -1       189-1.89056E+04 4.80980E+03 2.30079E+07-1.79879E-06 6.35523E+03-1.12007E-05
 -1       190 1.13322E+07 1.11147E+07 2.32638E+08 1.60981E-06 2.14973E-06 8.62047E+06
 -1       191-1.30854E+07-1.32724E+07 2.24391E+08-4.76295E+05 4.84645E+06-1.06292E+07
 -1       192-1.20036E+07-1.23775E+07 2.30225E+08-3.09570E-07-1.20775E-06-1.08599E+07
 -1       193-1.30854E+07-1.32724E+07 2.24391E+08 4.76295E+05-4.84645E+06-1.06292E+07
 -1       194 1.89653E+06 1.43451E+06 2.24350E+08 2.01340E-07 9.51753E-07 1.40079E+06
 -1       195-2.96982E+06-2.71285E+06 2.15880E+08-8.22557E+04 9.48779E+05-1.43334E+06
 -1       196-2.06918E+06-1.55524E+06 2.17581E+08 1.70270E-06 6.78941E-07-1.26684E+06
 -1       197-2.96982E+06-2.71285E+06 2.15880E+08 8.22557E+04-9.48779E+05-1.43334E+06
 -1       198 1.00112E+05 2.07638E+05 2.06893E+08-8.02829E-08 3.76773E-06 1.90709E+05
 -1       199-3.07328E+05-5.36600E+05 1.95688E+08 7.50942E+04 2.09801E+05-2.58982E+05
 -1       200-1.66796E+05-6.25340E+05 1.96158E+08-1.39436E-06 6.38961E-06-9.88907E+04
 -1       201-3.07328E+05-5.36600E+05 1.95688E+08-7.50942E+04-2.09801E+05-2.58982E+05
 -1       202-5.01419E+04-3.01007E+05 1.81422E+08 3.43567E-07 6.40955E-06-3.30415E+04
 -1       203-1.19600E+05-2.30039E+05 1.66735E+08 2.80833E+04 4.48258E+04-1.14115E+04
 -1       204-2.91851E+04-2.50064E+05 1.66913E+08 2.03940E-06 6.25310E-06 5.07355E+04
 -1       205-1.19600E+05-2.30039E+05 1.66735E+08-2.80833E+04-4.48258E+04-1.14115E+04
 -1       206-4.89264E+04-2.22423E+05 1.48991E+08 1.89223E-06-8.87903E-07-8.92828E+03
 -1       207-2.86595E+04-1.30439E+05 1.31079E+08 1.33840E+04 1.72413E+04-7.29757E+03
 -1       208-1.65737E+04-2.20133E+05 1.31173E+08 2.70108E-06-1.28584E-05 1.74676E+04
 -1       209-2.86595E+04-1.30439E+05 1.31079E+08-1.33840E+04-1.72413E+04-7.29757E+03
 -1       210-2.94305E+04-1.80105E+05 1.10756E+08 4.17149E-07-2.42954E-05-6.57263E+03
 -1       211-2.01119E+04-8.14205E+04 9.03246E+07 4.24993E+03 8.53395E+03-1.58086E+04
 -1       212-8.75030E+03-1.31368E+05 9.03768E+07-3.58063E-06-3.66863E-05 9.77641E+02
 -1       213-2.01119E+04-8.14205E+04 9.03246E+07-4.24993E+03-8.53395E+03-1.58086E+04
 -1       214-3.11509E+04-1.24043E+05 6.82216E+07-5.18446E-06-3.67064E-05 7.29784E+03
 -1       215-1.43835E+04-4.98680E+04 4.60306E+07 4.48002E+03 1.82544E+03 2.16435E+04
 -1       216-3.72854E+03-7.46977E+04 4.60988E+07-6.86757E-06-3.66913E-05-3.42851E+03
 -1       217-1.43835E+04-4.98680E+04 4.60306E+07-4.48002E+03-1.82544E+03 2.16435E+04
 -1       218 4.80980E+03-1.89056E+04 2.30079E+07-9.78437E-06-2.19390E-05-6.35523E+03
 -1       219 1.25287E+07 1.25287E+07 2.36739E+08-4.02379E-08-1.85611E-05-3.01038E-06
 -1       220-9.68352E+06-9.49654E+06 2.37415E+08-3.95812E-08-5.04859E+06-1.66027E-05
 -1       221-9.49654E+06-9.68352E+06 2.37415E+08-4.34884E-08-1.30286E-05-5.04859E+06
 -1       222-6.98950E+06-6.98950E+06 2.44605E+08-9.09076E-08-2.27386E-05-3.37249E-06
 -1       223-9.49654E+06-9.68352E+06 2.37415E+08 7.42039E-08-3.79052E-05 5.04859E+06
 -1       224-9.68352E+06-9.49654E+06 2.37415E+08-1.77573E-07 5.04859E+06 8.84442E-06
 -1       225 4.94766E+05 4.94766E+05 2.21411E+08-2.34631E-08-1.59179E-05-2.25610E-06
 -1       226-7.76353E+05-1.03332E+06 2.19521E+08-5.97265E-07-8.08335E+05-8.23919E-06
 -1       227-1.03332E+06-7.76353E+05 2.19521E+08 7.90071E-07-5.01231E-06-8.08335E+05
 -1       228 2.53931E+03 2.53931E+03 2.21461E+08 1.63044E-07-9.91622E-06-1.42568E-06
 -1       229-1.03332E+06-7.76353E+05 2.19521E+08 3.76363E-07-1.76576E-05 8.08335E+05
 -1       230-7.76353E+05-1.03332E+06 2.19521E+08 6.09725E-07 8.08335E+05 4.40188E-06
 -1       231-7.09519E+04-7.09519E+04 2.06593E+08-9.16589E-09-2.29677E-06 2.29684E-07
 -1       232-4.78606E+05-2.49334E+05 1.96461E+08 5.68809E-07-5.77060E+04 3.29098E-06
 -1       233-2.49334E+05-4.78606E+05 1.96461E+08-1.03435E-06 6.48180E-06-5.77060E+04
 -1       234-3.31872E+05-3.31872E+05 1.96765E+08-3.81494E-07 6.55414E-06 1.91042E-06
 -1       235-2.49334E+05-4.78606E+05 1.96461E+08 6.97402E-07 1.05130E-05 5.77060E+04
 -1       236-4.78606E+05-2.49334E+05 1.96461E+08-1.07009E-06 5.77060E+04 1.11877E-06
 -1       237-3.58602E+05-3.58602E+05 1.81602E+08-7.12950E-07 1.31843E-05 1.33956E-06
 -1       238-2.54333E+05-1.43894E+05 1.66959E+08-2.68248E-06 2.12301E+04 9.34748E-06
 -1       239-1.43894E+05-2.54333E+05 1.66959E+08 4.82668E-07 1.39715E-05 2.12301E+04
 -1       240-2.58602E+05-2.58602E+05 1.67006E+08-9.24372E-07 2.10292E-05 1.95836E-06
 -1       241-1.43894E+05-2.54333E+05 1.66959E+08 1.39809E-06 2.96623E-05-2.12301E+04
 -1       242-2.54333E+05-1.43894E+05 1.66959E+08-8.30457E-07-2.12301E+04-4.75649E-06
 -1       243-2.54517E+05-2.54517E+05 1.49162E+08 1.19181E-07 1.56500E-05 1.53796E-06
 -1       244-2.27817E+05-1.26038E+05 1.31217E+08-1.35669E-07 1.04853E+04 1.36456E-05
 -1       245-1.26038E+05-2.27817E+05 1.31217E+08 7.17507E-07-1.24404E-07 1.04853E+04
 -1       246-2.35501E+05-2.35501E+05 1.31260E+08 1.49227E-06 1.07834E-05 9.24003E-07
 -1       247-1.26038E+05-2.27817E+05 1.31217E+08-8.66994E-07 2.56514E-05-1.04853E+04
 -1       248-2.27817E+05-1.26038E+05 1.31217E+08 8.02969E-07-1.04853E+04-1.12681E-05
 -1       249-1.99826E+05-1.99826E+05 1.10874E+08 2.07063E-06 3.38553E-06 5.95612E-07
 -1       250-1.45468E+05-8.41593E+04 9.04031E+07 7.48124E-07 2.08254E+03 1.61889E-05
 -1       251-8.41593E+04-1.45468E+05 9.04031E+07 1.85507E-06-2.03203E-05 2.08254E+03
 -1       252-1.59568E+05-1.59568E+05 9.04295E+07 2.17745E-06-6.01776E-06 7.69636E-07
 -1       253-8.41593E+04-1.45468E+05 9.04031E+07 4.02858E-08 8.25581E-06-2.08254E+03
 -1       254-1.45468E+05-8.41593E+04 9.04031E+07 1.36301E-06-2.08254E+03-1.46391E-05
 -1       255-1.23015E+05-1.23015E+05 6.83094E+07 2.60407E-06-1.02503E-05 1.98995E-06
 -1       256-7.82332E+04-4.27486E+04 4.61102E+07 2.29550E-06-3.53362E+03 1.22552E-05
 -1       257-4.27486E+04-7.82332E+04 4.61102E+07-2.93216E-07-2.50759E-05-3.53362E+03
 -1       258-8.17687E+04-8.17687E+04 4.61215E+07 2.83768E-06-1.45112E-05-8.70320E-07
 -1       259-4.27486E+04-7.82332E+04 4.61102E+07 2.40404E-06-5.55586E-06 3.53362E+03
 -1       260-7.82332E+04-4.27486E+04 4.61102E+07-2.73365E-06 3.53362E+03-1.12400E-05
 -1       261-4.21358E+04-4.21358E+04 2.30065E+07 9.83480E-08-7.54619E-06 2.32056E-08
 -3
    1PSTEP                        13           1           2          
    1PGM                1.000000E+00                                  
    1PGK                1.475220E+12                                  
    1PHID                         -1                                  
    1PSUBC                         0                                  
    1PMODE                         7                                  
  100CL  108 1.93307E+05         261                     2    8MODAL      1
 -4  DISP        4    1
 -5  D1          1    2    1    0
 -5  D2          1    2    2    0
 -5  D3          1    2    3    0
 -5  ALL         1    2    0    0    1ALL
 -1         1 0.00000E+00 0.00000E+00 0.00000E+00
 -1         2 0.00000E+00 0.00000E+00 0.00000E+00
 -1         3 0.00000E+00 0.00000E+00 0.00000E+00
 -1         4 0.00000E+00 0.00000E+00 0.00000E+00
 -1         5 3.31329E+02-7.19181E+03-3.19371E+03
 -1         6 3.03705E+02-7.19059E+03-3.48876E+03
 -1         7 3.31329E+02-7.19181E+03 3.19371E+03
 -1         8 3.03705E+02-7.19059E+03 3.48876E+03
 -1         9 0.00000E+00 0.00000E+00 0.00000E+00
 -1        10 0.00000E+00 0.00000E+00 0.00000E+00
 -1        11 0.00000E+00 0.00000E+00 0.00000E+00
 -1        12 0.00000E+00 0.00000E+00 0.00000E+00
 -1        13 0.00000E+00 0.00000E+00 0.00000E+00
 -1        14 0.00000E+00 0.00000E+00 0.00000E+00
 -1        15 0.00000E+00 0.00000E+00 0.00000E+00
 -1        16 0.00000E+00 0.00000E+00 0.00000E+00
 -1        17 0.00000E+00 0.00000E+00 0.00000E+00
 -1        18 0.00000E+00 0.00000E+00 0.00000E+00
 -1        19 0.00000E+00 0.00000E+00 0.00000E+00
 -1        20 0.00000E+00 0.00000E+00 0.00000E+00
 -1        21 3.22501E+02-7.18846E+03-3.27265E+03
 -1        22 3.16215E+02-7.19448E+03-3.33793E+03
 -1        23 3.12105E+02-7.18831E+03-3.41820E+03
 -1        24 3.15768E+02-7.18611E+03-1.79588E+03
 -1        25 3.17662E+02-7.16171E+03-1.47381E+02
 -1        26 3.19018E+02-7.18657E+03 1.50045E+03
 -1        27 3.22501E+02-7.18846E+03 3.27265E+03
 -1        28 3.16215E+02-7.19448E+03 3.33793E+03
 -1        29 3.12105E+02-7.18831E+03 3.41820E+03
 -1        30 3.15768E+02-7.18611E+03 1.79588E+03
 -1        31 3.17662E+02-7.16171E+03 1.47381E+02
 -1        32 3.19018E+02-7.18657E+03-1.50045E+03
 -1        33 3.08280E+02-1.17707E+03-1.02061E+03
 -1        34 8.11984E+01-2.91609E+03-1.44713E+03
 -1        35 5.95384E+01-4.75902E+03-1.16681E+03
 -1        36-1.02554E+01-5.80875E+03-4.19562E+02
 -1        37-2.21546E+01-5.85054E+03 5.60548E+02
 -1        38-2.69375E+01-4.70939E+03 1.49338E+03
 -1        39-3.73426E+00-2.63933E+03 2.12477E+03
 -1        40 2.81486E+01-6.13229E+01 2.30770E+03
 -1        41 6.64194E+01 2.42416E+03 1.94325E+03
 -1        42 9.95060E+01 4.25273E+03 1.12568E+03
 -1        43 1.25245E+02 4.96299E+03-7.97695E+00
 -1        44 1.42042E+02 4.35054E+03-1.22457E+03
 -1        45 1.55512E+02 2.46951E+03-2.27859E+03
 -1        46 1.79539E+02-3.90593E+02-3.03900E+03
 -1        47 2.19976E+02-3.74332E+03-3.38809E+03
 -1        48 1.10372E+02-3.73848E+03-3.10155E+03
 -1        49-1.45681E+02-3.76234E+02-2.78199E+03
 -1        50-3.74621E+02 2.49291E+03-2.08588E+03
 -1        51-5.27532E+02 4.38011E+03-1.12101E+03
 -1        52-5.64858E+02 4.99346E+03-7.30231E+00
 -1        53-4.76175E+02 4.27815E+03 1.03047E+03
 -1        54-2.81167E+02 2.43950E+03 1.77890E+03
 -1        55-2.28327E+01-5.90719E+01 2.11253E+03
 -1        56 2.37275E+02-2.64997E+03 1.94507E+03
 -1        57 4.43728E+02-4.73017E+03 1.36708E+03
 -1        58 5.39895E+02-5.87536E+03 5.13141E+02
 -1        59 5.24252E+02-5.83235E+03-3.84078E+02
 -1        60 3.61306E+02-4.77234E+03-1.06813E+03
 -1        61 1.76499E+02-2.92029E+03-1.32474E+03
 -1        62-2.05337E+02-1.15439E+03-9.34292E+02
 -1        63-2.05337E+02-1.15439E+03 9.34292E+02
 -1        64 1.76499E+02-2.92029E+03 1.32474E+03
 -1        65 3.61306E+02-4.77234E+03 1.06813E+03
 -1        66 5.24252E+02-5.83235E+03 3.84078E+02
 -1        67 5.39895E+02-5.87536E+03-5.13141E+02
 -1        68 4.43728E+02-4.73017E+03-1.36708E+03
 -1        69 2.37275E+02-2.64997E+03-1.94507E+03
 -1        70-2.28327E+01-5.90719E+01-2.11253E+03
 -1        71-2.81167E+02 2.43950E+03-1.77890E+03
 -1        72-4.76175E+02 4.27815E+03-1.03047E+03
 -1        73-5.64858E+02 4.99346E+03 7.30231E+00
 -1        74-5.27532E+02 4.38011E+03 1.12101E+03
 -1        75-3.74621E+02 2.49291E+03 2.08588E+03
 -1        76-1.45681E+02-3.76234E+02 2.78199E+03
 -1        77 1.10372E+02-3.73848E+03 3.10155E+03
 -1        78 3.08280E+02-1.17707E+03 1.02061E+03
 -1        79 8.11984E+01-2.91609E+03 1.44713E+03
 -1        80 5.95384E+01-4.75902E+03 1.16681E+03
 -1        81-1.02554E+01-5.80875E+03 4.19562E+02
 -1        82-2.21546E+01-5.85054E+03-5.60548E+02
 -1        83-2.69375E+01-4.70939E+03-1.49338E+03
 -1        84-3.73426E+00-2.63933E+03-2.12477E+03
 -1        85 2.81486E+01-6.13229E+01-2.30770E+03
 -1        86 6.64194E+01 2.42416E+03-1.94325E+03
 -1        87 9.95060E+01 4.25273E+03-1.12568E+03
 -1        88 1.25245E+02 4.96299E+03 7.97695E+00
 -1        89 1.42042E+02 4.35054E+03 1.22457E+03
 -1        90 1.55512E+02 2.46951E+03 2.27859E+03
 -1        91 1.79539E+02-3.90593E+02 3.03900E+03
 -1        92 2.19976E+02-3.74332E+03 3.38809E+03
 -1        93 0.00000E+00 0.00000E+00 0.00000E+00
 -1        94 0.00000E+00 0.00000E+00 0.00000E+00
 -1        95 0.00000E+00 0.00000E+00 0.00000E+00
 -1        96 0.00000E+00 0.00000E+00 0.00000E+00
 -1        97 0.00000E+00 0.00000E+00 0.00000E+00
 -1        98 3.16503E+02-7.18970E+03-1.65746E+03
 -1        99 3.17451E+02-7.16822E+03 7.31828E+01
 -1       100 3.16876E+02-7.17668E+03-9.54969E-10
 -1       101 3.17451E+02-7.16822E+03-7.31828E+01
 -1       102 3.16503E+02-7.18970E+03 1.65746E+03
 -1       103 4.53472E+01-1.26710E+03-9.82259E+02
 -1       104 1.54612E+02-2.93507E+03-1.42070E+03
 -1       105 1.32586E+02-2.92328E+03-1.44979E+03
 -1       106 1.05500E+02-2.93300E+03-1.47098E+03
 -1       107 2.11504E+02-4.68211E+03-1.14030E+03
 -1       108 3.95973E+02-5.72553E+03-4.11011E+02
 -1       109 2.64059E+02-5.69860E+03-4.21444E+02
 -1       110 1.28683E+02-5.71382E+03-4.26013E+02
 -1       111 2.63857E+02-5.71940E+03 5.40135E+02
 -1       112 3.30165E+02-4.63773E+03 1.41961E+03
 -1       113 2.13898E+02-4.60712E+03 1.44599E+03
 -1       114 9.48920E+01-4.62737E+03 1.47884E+03
 -1       115 1.18866E+02-2.58343E+03 2.06336E+03
 -1       116-1.04118E+01-6.95179E+01 2.20102E+03
 -1       117 2.29238E+00-7.40891E+01 2.24056E+03
 -1       118 1.51075E+01-7.06477E+01 2.29134E+03
 -1       119-1.10879E+02 2.34502E+03 1.88949E+03
 -1       120-3.37020E+02 4.16167E+03 1.07719E+03
 -1       121-1.94425E+02 4.12288E+03 1.09600E+03
 -1       122-4.92109E+01 4.14901E+03 1.12057E+03
 -1       123-2.26611E+02 4.80464E+03-2.45461E+00
 -1       124-3.65857E+02 4.24594E+03-1.15736E+03
 -1       125-2.00100E+02 4.20139E+03-1.17973E+03
 -1       126-3.09419E+01 4.23119E+03-1.20705E+03
 -1       127-1.14818E+02 2.34659E+03-2.20240E+03
 -1       128-6.72842E+01-4.37114E+02-2.87435E+03
 -1       129 1.27753E+01-4.57910E+02-2.93027E+03
 -1       130 9.51220E+01-4.44203E+02-2.99790E+03
 -1       131 1.63989E+02-3.77575E+03-3.26434E+03
 -1       132 5.59470E+01-1.02703E+03-4.33703E+01
 -1       133 1.06110E+02-2.94445E+03-6.33192E+02
 -1       134 1.29073E+02-3.00283E+03-6.40132E+01
 -1       135 1.52986E+02-2.94662E+03 5.05514E+02
 -1       136 2.06732E+02-4.79018E+03-5.03483E+01
 -1       137 1.19944E+02-5.93536E+03-1.88363E+02
 -1       138 2.51614E+02-5.98046E+03-1.86083E+01
 -1       139 3.85144E+02-5.94716E+03 1.51406E+02
 -1       140 2.52532E+02-5.97588E+03 2.38489E+01
 -1       141 8.72922E+01-4.80820E+03 7.34673E+02
 -1       142 2.03421E+02-4.84441E+03 6.38458E+01
 -1       143 3.21795E+02-4.81859E+03-6.06696E+02
 -1       144 1.14068E+02-2.69209E+03 9.11046E+01
 -1       145 1.58883E+01-5.37389E+01 1.12193E+03
 -1       146 3.27130E+00-5.19184E+01 9.89288E+01
 -1       147-9.69954E+00-5.26121E+01-9.23573E+02
 -1       148-1.03541E+02 2.51120E+03 8.34276E+01
 -1       149-4.01162E+01 4.36736E+03 5.39734E+02
 -1       150-1.82040E+02 4.40338E+03 4.83924E+01
 -1       151-3.26830E+02 4.38007E+03-4.42695E+02
 -1       152-2.12142E+02 5.13233E+03-1.08380E-01
 -1       153-2.01902E+01 4.48600E+03-6.14874E+02
 -1       154-1.85506E+02 4.53190E+03-5.20895E+01
 -1       155-3.54106E+02 4.50079E+03 5.10477E+02
 -1       156-1.03610E+02 2.60043E+03-9.72440E+01
 -1       157 9.97317E+01-3.18823E+02-1.52872E+03
 -1       158 2.02184E+01-2.89339E+02-1.29382E+02
 -1       159-6.08184E+01-3.11652E+02 1.26944E+03
 -1       160 1.66713E+02-3.71405E+03-1.44132E+02
 -1       161 4.53472E+01-1.26710E+03 9.82259E+02
 -1       162 1.54612E+02-2.93507E+03 1.42070E+03
 -1       163 1.32586E+02-2.92328E+03 1.44979E+03
 -1       164 1.05500E+02-2.93300E+03 1.47098E+03
 -1       165 2.11504E+02-4.68211E+03 1.14030E+03
 -1       166 3.95973E+02-5.72553E+03 4.11011E+02
 -1       167 2.64059E+02-5.69860E+03 4.21444E+02
 -1       168 1.28683E+02-5.71382E+03 4.26013E+02
 -1       169 2.63857E+02-5.71940E+03-5.40135E+02
 -1       170 3.30165E+02-4.63773E+03-1.41961E+03
 -1       171 2.13898E+02-4.60712E+03-1.44599E+03
 -1       172 9.48920E+01-4.62737E+03-1.47884E+03
 -1       173 1.18866E+02-2.58343E+03-2.06336E+03
 -1       174-1.04118E+01-6.95179E+01-2.20102E+03
 -1       175 2.29238E+00-7.40891E+01-2.24056E+03
 -1       176 1.51075E+01-7.06477E+01-2.29134E+03
 -1       177-1.10879E+02 2.34502E+03-1.88949E+03
 -1       178-3.37020E+02 4.16167E+03-1.07719E+03
 -1       179-1.94425E+02 4.12288E+03-1.09600E+03
 -1       180-4.92109E+01 4.14901E+03-1.12057E+03
 -1       181-2.26611E+02 4.80464E+03 2.45461E+00
 -1       182-3.65857E+02 4.24594E+03 1.15736E+03
 -1       183-2.00100E+02 4.20139E+03 1.17973E+03
 -1       184-3.09419E+01 4.23119E+03 1.20705E+03
 -1       185-1.14818E+02 2.34659E+03 2.20240E+03
 -1       186-6.72842E+01-4.37114E+02 2.87435E+03
 -1       187 1.27753E+01-4.57910E+02 2.93027E+03
 -1       188 9.51220E+01-4.44203E+02 2.99790E+03
 -1       189 1.63989E+02-3.77575E+03 3.26434E+03
 -1       190 5.59470E+01-1.02703E+03 4.33703E+01
 -1       191 1.06110E+02-2.94445E+03 6.33192E+02
 -1       192 1.29073E+02-3.00283E+03 6.40132E+01
 -1       193 1.52986E+02-2.94662E+03-5.05514E+02
 -1       194 2.06732E+02-4.79018E+03 5.03483E+01
 -1       195 1.19944E+02-5.93536E+03 1.88363E+02
 -1       196 2.51614E+02-5.98046E+03 1.86083E+01
 -1       197 3.85144E+02-5.94716E+03-1.51406E+02
 -1       198 2.52532E+02-5.97588E+03-2.38489E+01
 -1       199 8.72922E+01-4.80820E+03-7.34673E+02
 -1       200 2.03421E+02-4.84441E+03-6.38458E+01
 -1       201 3.21795E+02-4.81859E+03 6.06696E+02
 -1       202 1.14068E+02-2.69209E+03-9.11046E+01
 -1       203 1.58883E+01-5.37389E+01-1.12193E+03
 -1       204 3.27130E+00-5.19184E+01-9.89288E+01
 -1       205-9.69954E+00-5.26121E+01 9.23573E+02
 -1       206-1.03541E+02 2.51120E+03-8.34276E+01
 -1       207-4.01162E+01 4.36736E+03-5.39734E+02
 -1       208-1.82040E+02 4.40338E+03-4.83924E+01
 -1       209-3.26830E+02 4.38007E+03 4.42695E+02
 -1       210-2.12142E+02 5.13233E+03 1.08380E-01
 -1       211-2.01902E+01 4.48600E+03 6.14874E+02
 -1       212-1.85506E+02 4.53190E+03 5.20895E+01
 -1       213-3.54106E+02 4.50079E+03-5.10477E+02
 -1       214-1.03610E+02 2.60043E+03 9.72440E+01
 -1       215 9.97317E+01-3.18823E+02 1.52872E+03
 -1       216 2.02184E+01-2.89339E+02 1.29382E+02
 -1       217-6.08184E+01-3.11652E+02-1.26944E+03
 -1       218 1.66713E+02-3.71405E+03 1.44132E+02
 -1       219 4.92649E+01-1.11576E+03-8.19682E-11
 -1       220 1.33200E+02-2.94707E+03-6.22466E+02
 -1       221 1.30124E+02-3.01673E+03 2.74841E+01
 -1       222 1.32606E+02-3.00330E+03-1.82354E-10
 -1       223 1.30124E+02-3.01673E+03-2.74841E+01
 -1       224 1.33200E+02-2.94707E+03 6.22466E+02
 -1       225 2.08293E+02-4.71747E+03-2.73303E-10
 -1       226 2.59582E+02-5.81907E+03-1.86219E+02
 -1       227 2.56933E+02-5.87908E+03 8.22222E+00
 -1       228 2.58539E+02-5.85545E+03-3.56977E-10
 -1       229 2.56933E+02-5.87908E+03-8.22222E+00
 -1       230 2.59582E+02-5.81907E+03 1.86219E+02
 -1       231 2.57961E+02-5.84235E+03-4.40195E-10
 -1       232 2.10057E+02-4.70124E+03 6.87990E+02
 -1       233 2.07577E+02-4.75741E+03-3.03772E+01
 -1       234 2.08907E+02-4.73137E+03-5.19321E-10
 -1       235 2.07577E+02-4.75741E+03 3.03772E+01
 -1       236 2.10057E+02-4.70124E+03-6.87990E+02
 -1       237 1.16361E+02-2.63537E+03-5.91172E-10
 -1       238 2.70447E+00-6.64842E+01 1.05534E+03
 -1       239 2.93551E+00-6.12515E+01-4.65971E+01
 -1       240 2.85341E+00-6.46247E+01-6.57565E-10
 -1       241 2.93551E+00-6.12515E+01 4.65971E+01
 -1       242 2.70447E+00-6.64842E+01-1.05534E+03
 -1       243-1.07176E+02 2.42734E+03-7.09178E-10
 -1       244-1.89641E+02 4.23300E+03 5.10291E+02
 -1       245-1.86902E+02 4.29502E+03-2.25312E+01
 -1       246-1.88237E+02 4.26322E+03-7.58746E-10
 -1       247-1.86902E+02 4.29502E+03 2.25312E+01
 -1       248-1.89641E+02 4.23300E+03-5.10291E+02
 -1       249-2.19279E+02 4.96627E+03-8.00739E-10
 -1       250-1.94500E+02 4.32994E+03-5.71701E+02
 -1       251-1.91182E+02 4.40508E+03 2.52427E+01
 -1       252-1.92809E+02 4.36677E+03-8.39805E-10
 -1       253-1.91182E+02 4.40508E+03-2.52427E+01
 -1       254-1.94500E+02 4.32994E+03 5.71701E+02
 -1       255-1.09184E+02 2.47283E+03-8.73797E-10
 -1       256 1.54700E+01-3.95849E+02-1.42008E+03
 -1       257 1.74782E+01-3.50367E+02 6.27016E+01
 -1       258 1.64552E+01-3.72682E+02-9.14042E-10
 -1       259 1.74782E+01-3.50367E+02-6.27016E+01
 -1       260 1.54700E+01-3.95849E+02 1.42008E+03
 -1       261 1.65442E+02-3.74697E+03-9.49058E-10
 -3
    1PSTEP                        14           1           2          
    1PGM                1.000000E+00                                  
    1PGK                1.475220E+12                                  
    1PHID                         -1                                  
    1PSUBC                         0                                  
    1PMODE                         7                                  
  100CL  108 1.93307E+05         261                     2    8MODAL      1
 -4  STRESS      6    1
 -5  SXX         1    4    1    1
 -5  SYY         1    4    2    2
 -5  SZZ         1    4    3    3
 -5  SXY         1    4    1    2
 -5  SYZ         1    4    2    3
 -5  SZX         1    4    3    1
 -1         1-1.53928E+08-1.76329E+08-5.91299E+08 1.87258E+07-1.06631E+08-7.90874E+07
 -1         2-1.70131E+08-1.90637E+08-6.45927E+08-2.04558E+07-1.14045E+08 8.88310E+07
 -1         3 1.53928E+08 1.76329E+08 5.91299E+08-1.87258E+07-1.06631E+08-7.90874E+07
 -1         4 1.70131E+08 1.90637E+08 6.45927E+08 2.04558E+07-1.14045E+08 8.88310E+07
 -1         5-3.55147E+06 1.36315E+07 1.87240E+07 4.61836E+06-4.37566E+06 1.69694E+06
 -1         6-2.35924E+06 1.33705E+07 2.04538E+07-5.04504E+06-4.24261E+06-1.31641E+06
 -1         7 3.55147E+06-1.36315E+07-1.87240E+07-4.61836E+06-4.37566E+06 1.69694E+06
 -1         8 2.35924E+06-1.33705E+07-2.04538E+07 5.04504E+06-4.24261E+06-1.31641E+06
 -1         9-1.57073E+08-1.77028E+08-6.01086E+08 3.58602E+06-1.26052E+08-3.67757E+07
 -1        10-1.56765E+08-1.75995E+08-6.08556E+08-9.14087E+05-1.45475E+08 2.58874E+06
 -1        11-1.61721E+08-1.82450E+08-6.26083E+08-5.36512E+06-1.29760E+08 4.42363E+07
 -1        12-6.93446E+07-5.96673E+07-3.10155E+08-2.03442E+07-8.62726E+07 4.76378E+07
 -1        13-7.77080E+06-6.92173E+06-2.68699E+07-2.07024E+07-5.86303E+07 6.42324E+06
 -1        14 5.34724E+07 4.55914E+07 2.55971E+08-1.99490E+07-8.26956E+07-3.63427E+07
 -1        15 1.57073E+08 1.77028E+08 6.01086E+08-3.58602E+06-1.26052E+08-3.67757E+07
 -1        16 1.56765E+08 1.75995E+08 6.08556E+08 9.14087E+05-1.45475E+08 2.58874E+06
 -1        17 1.61721E+08 1.82450E+08 6.26083E+08 5.36512E+06-1.29760E+08 4.42363E+07
 -1        18 6.93446E+07 5.96673E+07 3.10155E+08 2.03442E+07-8.62726E+07 4.76378E+07
 -1        19 7.77080E+06 6.92173E+06 2.68699E+07 2.07024E+07-5.86303E+07 6.42324E+06
 -1        20-5.34724E+07-4.55914E+07-2.55971E+08 1.99490E+07-8.26956E+07-3.63427E+07
 -1        21-1.44221E+06 8.05030E+06 2.12507E+07-9.11744E+05-1.96393E+06 1.81958E+06
 -1        22 1.01735E+06 2.62095E+06 2.37122E+07-2.21949E+04 3.87966E+05 9.40806E+05
 -1        23-4.95796E+05 8.07162E+06 2.20504E+07 6.76213E+05-1.95724E+06-6.88507E+05
 -1        24 5.97292E+05 1.06745E+07 1.00124E+07-2.63213E+06-1.27530E+07 1.07285E+04
 -1        25 1.15724E+05 4.49199E+04 1.04698E+06-5.02676E+05-2.13076E+07-1.71301E+04
 -1        26 1.14548E+05-1.07600E+07-8.10051E+06-2.70224E+06-1.28637E+07 1.62405E+05
 -1        27 1.44221E+06-8.05030E+06-2.12507E+07 9.11744E+05-1.96393E+06 1.81958E+06
 -1        28-1.01735E+06-2.62095E+06-2.37122E+07 2.21949E+04 3.87966E+05 9.40806E+05
 -1        29 4.95796E+05-8.07162E+06-2.20504E+07-6.76213E+05-1.95724E+06-6.88507E+05
 -1        30-5.97292E+05-1.06745E+07-1.00124E+07 2.63213E+06-1.27530E+07 1.07285E+04
 -1        31-1.15724E+05-4.49199E+04-1.04698E+06 5.02676E+05-2.13076E+07-1.71301E+04
 -1        32-1.14548E+05 1.07600E+07 8.10051E+06 2.70224E+06-1.28637E+07 1.62405E+05
 -1        33-4.28802E+07-6.03656E+07-3.20170E+08-1.14246E+07-5.24809E+07 1.08274E+07
 -1        34 3.87049E+07 4.38761E+07 9.10095E+06 6.06077E+06-1.20673E+07-2.63544E+07
 -1        35 1.95975E+06 1.49336E+07 2.10020E+08 4.68316E+06-1.48288E+07 4.02920E+05
 -1        36 1.19549E+06-9.75275E+05 4.06497E+08-3.16767E+06-8.01253E+06-6.05993E+06
 -1        37-1.05654E+06-1.79363E+04 3.92176E+08-3.00169E+05-9.21997E+05 8.19173E+05
 -1        38 2.19681E+06 6.38725E+06 3.66180E+08 5.99018E+05 1.41609E+07 2.17668E+06
 -1        39 7.49058E+05 2.96748E+06 1.67649E+08 5.59616E+05 1.72997E+07 4.24460E+06
 -1        40-2.28773E+04-2.35062E+05-3.78082E+07-1.85095E+05 2.24427E+07 4.67724E+06
 -1        41-6.65101E+05-2.50015E+06-2.44948E+08-3.38477E+05 1.73502E+07 4.01119E+06
 -1        42 3.29845E+05-1.56948E+06-4.42305E+08-1.65588E+04 1.29539E+07 2.73003E+06
 -1        43-1.23505E+06-4.67056E+06-4.86383E+08-4.38275E+05 3.23037E+06 7.21226E+05
 -1        44 1.67605E+05-1.80813E+06-5.10551E+08-8.95787E+04-5.32594E+06-1.63288E+06
 -1        45-3.47055E+05-2.55294E+06-3.77360E+08-2.90961E+04-1.24236E+07-2.67415E+06
 -1        46 3.60582E+05-2.88250E+06-2.31322E+08 1.11155E+06-1.66156E+07-3.68988E+06
 -1        47 1.62548E+05 6.36559E+06-9.39277E+07-1.15013E+06-8.83270E+06-2.74825E+06
 -1        48-4.00042E+05 6.37608E+06-8.59840E+07 1.05286E+06-9.11038E+06 3.54050E+06
 -1        49 6.17034E+05-2.92567E+06-2.11758E+08-1.01755E+06-1.70070E+07 5.17444E+06
 -1        50-1.22527E+05-2.53221E+06-3.45445E+08 2.66354E+04-1.27087E+07 3.78384E+06
 -1        51 3.28243E+05-1.83003E+06-4.67372E+08 8.20027E+04-5.49123E+06 2.11049E+06
 -1        52-8.26627E+05-4.57953E+06-4.45248E+08 4.01209E+05 3.30680E+06-1.00987E+06
 -1        53 4.70000E+05-1.60479E+06-4.04898E+08 1.51584E+04 1.32460E+07-3.88685E+06
 -1        54-4.46486E+05-2.45107E+06-2.24232E+08 3.09851E+05 1.77729E+07-5.56200E+06
 -1        55-2.16852E+03-2.33956E+05-3.46106E+07 1.69441E+05 2.29443E+07-6.68124E+06
 -1        56 4.89422E+05 2.91280E+06 1.53470E+08-5.12287E+05 1.77429E+07-5.79186E+06
 -1        57 1.64025E+06 6.21783E+06 3.35211E+08-5.48358E+05 1.44088E+07-3.43813E+06
 -1        58-1.05908E+06 7.54755E+04 3.59008E+08 2.74783E+05-8.53119E+05-7.40795E+05
 -1        59 1.28645E+06-1.08486E+06 3.72118E+08 2.89977E+06-8.58001E+06 6.79255E+06
 -1        60 6.46089E+05 1.48185E+07 1.92258E+08-4.28709E+06-1.48511E+07 9.07555E+05
 -1        61 3.49739E+07 4.06229E+07 8.33126E+06-5.54819E+06-1.44463E+07 2.75251E+07
 -1        62-3.77066E+07-5.68074E+07-2.93093E+08 1.04584E+07-5.17279E+07-6.22624E+06
 -1        63 3.77066E+07 5.68074E+07 2.93093E+08-1.04584E+07-5.17279E+07-6.22624E+06
 -1        64-3.49739E+07-4.06229E+07-8.33126E+06 5.54819E+06-1.44463E+07 2.75251E+07
 -1        65-6.46089E+05-1.48185E+07-1.92258E+08 4.28709E+06-1.48511E+07 9.07555E+05
 -1        66-1.28645E+06 1.08486E+06-3.72118E+08-2.89977E+06-8.58001E+06 6.79255E+06
 -1        67 1.05908E+06-7.54755E+04-3.59008E+08-2.74783E+05-8.53119E+05-7.40795E+05
 -1        68-1.64025E+06-6.21783E+06-3.35211E+08 5.48358E+05 1.44088E+07-3.43813E+06
 -1        69-4.89422E+05-2.91280E+06-1.53470E+08 5.12287E+05 1.77429E+07-5.79186E+06
 -1        70 2.16852E+03 2.33956E+05 3.46106E+07-1.69441E+05 2.29443E+07-6.68124E+06
 -1        71 4.46486E+05 2.45107E+06 2.24232E+08-3.09851E+05 1.77729E+07-5.56200E+06
 -1        72-4.70000E+05 1.60479E+06 4.04898E+08-1.51584E+04 1.32460E+07-3.88685E+06
 -1        73 8.26627E+05 4.57953E+06 4.45248E+08-4.01209E+05 3.30680E+06-1.00987E+06
 -1        74-3.28243E+05 1.83003E+06 4.67372E+08-8.20027E+04-5.49123E+06 2.11049E+06
 -1        75 1.22527E+05 2.53221E+06 3.45445E+08-2.66354E+04-1.27087E+07 3.78384E+06
 -1        76-6.17034E+05 2.92567E+06 2.11758E+08 1.01755E+06-1.70070E+07 5.17444E+06
 -1        77 4.00042E+05-6.37608E+06 8.59840E+07-1.05286E+06-9.11038E+06 3.54050E+06
 -1        78 4.28802E+07 6.03656E+07 3.20170E+08 1.14246E+07-5.24809E+07 1.08274E+07
 -1        79-3.87049E+07-4.38761E+07-9.10095E+06-6.06077E+06-1.20673E+07-2.63544E+07
 -1        80-1.95975E+06-1.49336E+07-2.10020E+08-4.68316E+06-1.48288E+07 4.02920E+05
 -1        81-1.19549E+06 9.75275E+05-4.06497E+08 3.16767E+06-8.01253E+06-6.05993E+06
 -1        82 1.05654E+06 1.79363E+04-3.92176E+08 3.00169E+05-9.21997E+05 8.19173E+05
 -1        83-2.19681E+06-6.38725E+06-3.66180E+08-5.99018E+05 1.41609E+07 2.17668E+06
 -1        84-7.49058E+05-2.96748E+06-1.67649E+08-5.59616E+05 1.72997E+07 4.24460E+06
 -1        85 2.28773E+04 2.35062E+05 3.78082E+07 1.85095E+05 2.24427E+07 4.67724E+06
 -1        86 6.65101E+05 2.50015E+06 2.44948E+08 3.38477E+05 1.73502E+07 4.01119E+06
 -1        87-3.29845E+05 1.56948E+06 4.42305E+08 1.65588E+04 1.29539E+07 2.73003E+06
 -1        88 1.23505E+06 4.67056E+06 4.86383E+08 4.38275E+05 3.23037E+06 7.21226E+05
 -1        89-1.67605E+05 1.80813E+06 5.10551E+08 8.95787E+04-5.32594E+06-1.63288E+06
 -1        90 3.47055E+05 2.55294E+06 3.77360E+08 2.90961E+04-1.24236E+07-2.67415E+06
 -1        91-3.60582E+05 2.88250E+06 2.31322E+08-1.11155E+06-1.66156E+07-3.68988E+06
 -1        92-1.62548E+05-6.36559E+06 9.39277E+07 1.15013E+06-8.83270E+06-2.74825E+06
 -1        93-5.87958E+07-4.77919E+07-2.79193E+08-2.46678E+05-1.17769E+08 3.28266E+06
 -1        94 2.11018E+06 2.59604E+06 1.23274E+07 5.58681E+06-7.43464E+07 5.19991E+06
 -1        95-6.41309E-06-5.76675E-06-3.41609E-05-3.44589E-08-9.00626E+07 3.97658E+06
 -1        96-2.11018E+06-2.59604E+06-1.23274E+07-5.58681E+06-7.43464E+07 5.19991E+06
 -1        97 5.87958E+07 4.77919E+07 2.79193E+08 2.46678E+05-1.17769E+08 3.28266E+06
 -1        98 2.26720E+06 5.30027E+06 1.12718E+07-3.02614E+03-6.34602E+06 7.59168E+05
 -1        99-2.34026E+05-1.00105E+05-4.97688E+05 6.85367E+04-1.71938E+07 2.80200E+05
 -1       100 1.78702E-05 3.47963E-05 2.67872E-05 2.00749E-06-1.30800E+07 5.77529E+05
 -1       101 2.34026E+05 1.00105E+05 4.97688E+05-6.85367E+04-1.71938E+07 2.80200E+05
 -1       102-2.26720E+06-5.30027E+06-1.12718E+07 3.02614E+03-6.34602E+06 7.59168E+05
 -1       103-4.85596E+07-6.21294E+07-3.26560E+08-5.54368E+05-5.70569E+07 6.12331E+06
 -1       104 3.41505E+07 4.15704E+07 5.02151E+06-7.32476E+05-4.27381E+06 2.19879E+07
 -1       105 3.20898E+07 4.20245E+07 1.28843E+06 2.22276E+05 5.79690E+06 8.50605E+06
 -1       106 3.47788E+07 4.27036E+07 4.98302E+06 1.21104E+06-3.18607E+06-1.28965E+07
 -1       107 4.66871E+06 1.72577E+07 2.14171E+08 2.20210E+05-8.94084E+06 5.32803E+06
 -1       108 8.61903E+05-2.88259E+06 3.82683E+08-3.40852E+05-7.15228E+06 5.66631E+06
 -1       109 1.26519E+06-4.48246E+06 3.93036E+08-1.22063E+05-5.75553E+06 2.69299E+06
 -1       110 1.64426E+06-2.62994E+06 3.99661E+08 8.48387E+04-6.89952E+06-2.60701E+06
 -1       111 2.09088E+06-9.48654E+04 3.86143E+08 1.04242E+04-9.19910E+05-4.69884E+05
 -1       112 2.79877E+06 6.02801E+06 3.46838E+08-1.46619E+05 1.19177E+07-4.90647E+06
 -1       113 4.09853E+06 5.78912E+06 3.58142E+08 5.14367E+04 9.47262E+06-3.32924E+06
 -1       114 3.21829E+06 6.06365E+06 3.62000E+08 2.23386E+05 1.18397E+07 9.46502E+05
 -1       115 2.14763E+06 3.08494E+06 1.65265E+08 3.61448E+04 1.16696E+07-4.85719E+06
 -1       116-8.21714E+04-3.24200E+05-3.55672E+07 5.48038E+03 1.88737E+07-9.47744E+06
 -1       117-1.05522E+05-3.92971E+05-3.65108E+07-9.10858E+03 1.48866E+07-6.12631E+06
 -1       118-3.58734E+04-3.03280E+05-3.71530E+07-2.24160E+04 1.87065E+07 2.34913E+06
 -1       119-1.74171E+06-2.46222E+06-2.38562E+08-2.41797E+04 1.17072E+07-4.94416E+06
 -1       120-6.99902E+05-1.60035E+06-4.18446E+08 2.69934E+05 1.08792E+07-5.46000E+06
 -1       121-2.09284E+06-1.59131E+06-4.31732E+08-1.97745E+04 8.56075E+06-3.55124E+06
 -1       122-9.93014E+05-1.57810E+06-4.36888E+08-2.90409E+05 1.07814E+07 1.33035E+06
 -1       123-3.19974E+06-4.12964E+06-4.73810E+08-4.11345E+04 2.23191E+06-9.35666E+05
 -1       124-6.98569E+05-1.71350E+06-4.82444E+08 2.35993E+05-4.66956E+06 2.86317E+06
 -1       125-1.96151E+06-1.59842E+06-4.97266E+08-2.07683E+04-3.87254E+06 1.75173E+06
 -1       126-1.01501E+06-1.70401E+06-5.03784E+08-2.60549E+05-4.61157E+06-8.72639E+05
 -1       127-1.51240E+06-2.32514E+06-3.65617E+08-1.73222E+04-8.07662E+06 3.09422E+06
 -1       128 9.32589E+05-1.65603E+06-2.15887E+08 1.30879E+05-1.40663E+07 7.20623E+06
 -1       129 1.27878E+06-3.89992E+05-2.20014E+08 7.28615E+03-1.11879E+07 4.40121E+06
 -1       130 8.34998E+05-1.63805E+06-2.25667E+08-7.65895E+04-1.39329E+07-2.06275E+06
 -1       131 2.80491E+06 3.47017E+06-8.65081E+07 1.13692E+04-5.25702E+06 2.77130E+06
 -1       132-2.74324E+06-2.14408E+06-1.44188E+07-1.25555E+07-1.38682E+08 2.51927E+06
 -1       133 1.46934E+07 8.63697E+06-2.15053E+05 5.46222E+06-1.02182E+08-1.21530E+07
 -1       134 1.85553E+06 1.41688E+06 5.68886E+04 5.03416E+06-1.92647E+08-2.55954E+05
 -1       135-1.09724E+07-5.59350E+06 6.56789E+05 5.37641E+06-1.03722E+08 1.24823E+07
 -1       136 7.61991E+05 2.06140E+05 9.45641E+06 4.98736E+06-1.20670E+08 3.94770E+05
 -1       137 2.73936E+06 8.91479E+06 2.09538E+08-2.88972E+06-3.44612E+07-2.55211E+06
 -1       138-1.97916E+05 5.58627E+04 1.73540E+07-2.76451E+06-6.09915E+07 2.54127E+05
 -1       139-2.98275E+06-8.80413E+06-1.74995E+08-2.90852E+06-3.48265E+07 3.17254E+06
 -1       140-4.18865E+03 9.23197E+04 1.70496E+07 2.36090E+05 1.06420E+07 4.06173E+04
 -1       141 6.70575E+05 4.88360E+06 1.87349E+08 8.77488E+05 4.47138E+07 3.59327E+05
 -1       142 2.55611E+05 1.80965E+05 1.58133E+07 1.16495E+06 7.54013E+07-4.18250E+05
 -1       143-1.36685E+05-4.61793E+06-1.56051E+08 8.61150E+05 4.49723E+07-1.40830E+06
 -1       144 1.36211E+05 9.48257E+04 7.29703E+06 8.18615E+05 1.10007E+08-5.15257E+05
 -1       145 2.23047E+05 5.21678E+05-1.95634E+07-1.92397E+05 8.04606E+07 1.06364E+06
 -1       146-1.73511E+04-4.65917E+03-1.61208E+06-2.06293E+05 1.38750E+08-6.57299E+05
 -1       147-2.50752E+05-5.26890E+05 1.63525E+07-1.91165E+05 8.09828E+07-2.72294E+06
 -1       148-1.08716E+05-7.69028E+04-1.05334E+07-5.47626E+05 1.11976E+08-5.16913E+05
 -1       149 1.81810E+05-3.35661E+06-2.27721E+08-2.44228E+05 4.66147E+07 6.29291E+05
 -1       150-7.02619E+04-9.24063E+04-1.90625E+07-4.47857E+05 8.04292E+07-3.77988E+05
 -1       151-3.22150E+05 3.28186E+06 1.89955E+08-2.19487E+05 4.69145E+07-1.58569E+06
 -1       152-1.82338E+05-1.41280E+05-2.09204E+07-9.31623E+05 2.11912E+07-9.85468E+04
 -1       153 3.20127E+04-3.62127E+06-2.63429E+08-2.89040E+05-2.24586E+07-4.51751E+05
 -1       154-7.05761E+04-8.66075E+04-2.19561E+07-4.70365E+05-3.96735E+07 1.70987E+05
 -1       155-1.82908E+05 3.54561E+06 2.19883E+08-2.67116E+05-2.26235E+07 8.61546E+05
 -1       156-1.02663E+05-6.67777E+04-1.61433E+07-3.92316E+05-7.00787E+07 3.56612E+05
 -1       157 1.30952E+05-1.06611E+06-1.20505E+08 6.10204E+05-5.80408E+07-8.92356E+05
 -1       158-1.72196E+04 5.64627E+04-9.71440E+06 1.65018E+05-9.96795E+07 4.93986E+05
 -1       159-2.76398E+05 1.14416E+06 1.01009E+08 6.19364E+05-5.84500E+07 2.12862E+06
 -1       160 1.53220E+05 1.23847E+05-3.81964E+06 2.57492E+05-6.27649E+07 2.32116E+05
 -1       161 4.85596E+07 6.21294E+07 3.26560E+08 5.54368E+05-5.70569E+07 6.12331E+06
 -1       162-3.41505E+07-4.15704E+07-5.02151E+06 7.32476E+05-4.27381E+06 2.19879E+07
 -1       163-3.20898E+07-4.20245E+07-1.28843E+06-2.22276E+05 5.79690E+06 8.50605E+06
 -1       164-3.47788E+07-4.27036E+07-4.98302E+06-1.21104E+06-3.18607E+06-1.28965E+07
 -1       165-4.66871E+06-1.72577E+07-2.14171E+08-2.20210E+05-8.94084E+06 5.32803E+06
 -1       166-8.61903E+05 2.88259E+06-3.82683E+08 3.40852E+05-7.15228E+06 5.66631E+06
 -1       167-1.26519E+06 4.48246E+06-3.93036E+08 1.22063E+05-5.75553E+06 2.69299E+06
 -1       168-1.64426E+06 2.62994E+06-3.99661E+08-8.48387E+04-6.89952E+06-2.60701E+06
 -1       169-2.09088E+06 9.48654E+04-3.86143E+08-1.04242E+04-9.19910E+05-4.69884E+05
 -1       170-2.79877E+06-6.02801E+06-3.46838E+08 1.46619E+05 1.19177E+07-4.90647E+06
 -1       171-4.09853E+06-5.78912E+06-3.58142E+08-5.14367E+04 9.47262E+06-3.32924E+06
 -1       172-3.21829E+06-6.06365E+06-3.62000E+08-2.23386E+05 1.18397E+07 9.46502E+05
 -1       173-2.14763E+06-3.08494E+06-1.65265E+08-3.61448E+04 1.16696E+07-4.85719E+06
 -1       174 8.21714E+04 3.24200E+05 3.55672E+07-5.48038E+03 1.88737E+07-9.47744E+06
 -1       175 1.05522E+05 3.92971E+05 3.65108E+07 9.10858E+03 1.48866E+07-6.12631E+06
 -1       176 3.58734E+04 3.03280E+05 3.71530E+07 2.24160E+04 1.87065E+07 2.34913E+06
 -1       177 1.74171E+06 2.46222E+06 2.38562E+08 2.41797E+04 1.17072E+07-4.94416E+06
 -1       178 6.99902E+05 1.60035E+06 4.18446E+08-2.69934E+05 1.08792E+07-5.46000E+06
 -1       179 2.09284E+06 1.59131E+06 4.31732E+08 1.97745E+04 8.56075E+06-3.55124E+06
 -1       180 9.93014E+05 1.57810E+06 4.36888E+08 2.90409E+05 1.07814E+07 1.33035E+06
 -1       181 3.19974E+06 4.12964E+06 4.73810E+08 4.11345E+04 2.23191E+06-9.35666E+05
 -1       182 6.98569E+05 1.71350E+06 4.82444E+08-2.35993E+05-4.66956E+06 2.86317E+06
 -1       183 1.96151E+06 1.59842E+06 4.97266E+08 2.07683E+04-3.87254E+06 1.75173E+06
 -1       184 1.01501E+06 1.70401E+06 5.03784E+08 2.60549E+05-4.61157E+06-8.72639E+05
 -1       185 1.51240E+06 2.32514E+06 3.65617E+08 1.73222E+04-8.07662E+06 3.09422E+06
 -1       186-9.32589E+05 1.65603E+06 2.15887E+08-1.30879E+05-1.40663E+07 7.20623E+06
 -1       187-1.27878E+06 3.89992E+05 2.20014E+08-7.28615E+03-1.11879E+07 4.40121E+06
 -1       188-8.34998E+05 1.63805E+06 2.25667E+08 7.65895E+04-1.39329E+07-2.06275E+06
 -1       189-2.80491E+06-3.47017E+06 8.65081E+07-1.13692E+04-5.25702E+06 2.77130E+06
 -1       190 2.74324E+06 2.14408E+06 1.44188E+07 1.25555E+07-1.38682E+08 2.51927E+06
 -1       191-1.46934E+07-8.63697E+06 2.15053E+05-5.46222E+06-1.02182E+08-1.21530E+07
 -1       192-1.85553E+06-1.41688E+06-5.68886E+04-5.03416E+06-1.92647E+08-2.55954E+05
 -1       193 1.09724E+07 5.59350E+06-6.56789E+05-5.37641E+06-1.03722E+08 1.24823E+07
 -1       194-7.61991E+05-2.06140E+05-9.45641E+06-4.98736E+06-1.20670E+08 3.94770E+05
 -1       195-2.73936E+06-8.91479E+06-2.09538E+08 2.88972E+06-3.44612E+07-2.55211E+06
 -1       196 1.97916E+05-5.58627E+04-1.73540E+07 2.76451E+06-6.09915E+07 2.54127E+05
 -1       197 2.98275E+06 8.80413E+06 1.74995E+08 2.90852E+06-3.48265E+07 3.17254E+06
 -1       198 4.18865E+03-9.23197E+04-1.70496E+07-2.36090E+05 1.06420E+07 4.06173E+04
 -1       199-6.70575E+05-4.88360E+06-1.87349E+08-8.77488E+05 4.47138E+07 3.59327E+05
 -1       200-2.55611E+05-1.80965E+05-1.58133E+07-1.16495E+06 7.54013E+07-4.18250E+05
 -1       201 1.36685E+05 4.61793E+06 1.56051E+08-8.61150E+05 4.49723E+07-1.40830E+06
 -1       202-1.36211E+05-9.48257E+04-7.29703E+06-8.18615E+05 1.10007E+08-5.15257E+05
 -1       203-2.23047E+05-5.21678E+05 1.95634E+07 1.92397E+05 8.04606E+07 1.06364E+06
 -1       204 1.73511E+04 4.65917E+03 1.61208E+06 2.06293E+05 1.38750E+08-6.57299E+05
 -1       205 2.50752E+05 5.26890E+05-1.63525E+07 1.91165E+05 8.09828E+07-2.72294E+06
 -1       206 1.08716E+05 7.69028E+04 1.05334E+07 5.47626E+05 1.11976E+08-5.16913E+05
 -1       207-1.81810E+05 3.35661E+06 2.27721E+08 2.44228E+05 4.66147E+07 6.29291E+05
 -1       208 7.02619E+04 9.24063E+04 1.90625E+07 4.47857E+05 8.04292E+07-3.77988E+05
 -1       209 3.22150E+05-3.28186E+06-1.89955E+08 2.19487E+05 4.69145E+07-1.58569E+06
 -1       210 1.82338E+05 1.41280E+05 2.09204E+07 9.31623E+05 2.11912E+07-9.85468E+04
 -1       211-3.20127E+04 3.62127E+06 2.63429E+08 2.89040E+05-2.24586E+07-4.51751E+05
 -1       212 7.05761E+04 8.66075E+04 2.19561E+07 4.70365E+05-3.96735E+07 1.70987E+05
 -1       213 1.82908E+05-3.54561E+06-2.19883E+08 2.67116E+05-2.26235E+07 8.61546E+05
 -1       214 1.02663E+05 6.67777E+04 1.61433E+07 3.92316E+05-7.00787E+07 3.56612E+05
 -1       215-1.30952E+05 1.06611E+06 1.20505E+08-6.10204E+05-5.80408E+07-8.92356E+05
 -1       216 1.72196E+04-5.64627E+04 9.71440E+06-1.65018E+05-9.96795E+07 4.93986E+05
 -1       217 2.76398E+05-1.14416E+06-1.01009E+08-6.19364E+05-5.84500E+07 2.12862E+06
 -1       218-1.53220E+05-1.23847E+05 3.81964E+06-2.57492E+05-6.27649E+07 2.32116E+05
 -1       219-2.37301E-06-2.94484E-06-3.93307E-05-3.20142E-07-1.29590E+08 5.72186E+06
 -1       220 1.01035E+07 6.35074E+06-4.67985E+06 9.38140E+03-7.21913E+07 7.56850E+06
 -1       221-2.80408E+05-4.46107E+05 2.06632E+05-2.12472E+05-1.71413E+08 3.18750E+06
 -1       222 3.16650E-07 1.09896E-07-4.18611E-05-6.48433E-07-1.50179E+08 6.63096E+06
 -1       223 2.80408E+05 4.46107E+05-2.06632E+05 2.12472E+05-1.71413E+08 3.18750E+06
 -1       224-1.01035E+07-6.35074E+06 4.67985E+06-9.38140E+03-7.21913E+07 7.56850E+06
 -1       225-4.32273E-06-6.05779E-06-3.92534E-05 3.34810E-07-9.70302E+07 4.28423E+06
 -1       226 3.41544E+06 7.57608E+06 1.95496E+08 2.12045E+04-2.77419E+07 2.44434E+06
 -1       227-3.34511E+05-1.50804E+05-8.63183E+06-4.80244E+05-5.53599E+07 1.22491E+06
 -1       228-8.89026E-06-1.31552E-05-4.09544E-05 1.11823E-06-4.97283E+07 2.19568E+06
 -1       229 3.34511E+05 1.50804E+05 8.63183E+06 4.80244E+05-5.53599E+07 1.22491E+06
 -1       230-3.41544E+06-7.57608E+06-1.95496E+08-2.12045E+04-2.77419E+07 2.44434E+06
 -1       231-8.72969E-07-9.04873E-06-3.75644E-05 1.74984E-06 8.51906E+06-3.76147E+05
 -1       232 1.67450E+06 4.27417E+06 1.76246E+08 3.40406E+04 3.44371E+07-2.97602E+06
 -1       233-1.88720E+05-7.39352E+04-7.78191E+06-7.70960E+05 6.74015E+07-1.52052E+06
 -1       234 8.22649E-06-5.33424E-06-3.23172E-05 2.49826E-06 5.94016E+07-2.62280E+06
 -1       235 1.88720E+05 7.39352E+04 7.78191E+06 7.70960E+05 6.74015E+07-1.52052E+06
 -1       236-1.67450E+06-4.27417E+06-1.76246E+08-3.40406E+04 3.44371E+07-2.97602E+06
 -1       237 7.15692E-06 4.76313E-07-2.87711E-05 2.25414E-06 8.69437E+07-3.83888E+06
 -1       238 1.77813E+05 3.95406E+05-1.81014E+07-8.08776E+02 6.22855E+07-5.48463E+06
 -1       239-1.74586E+04-7.85109E+03 7.99243E+05 1.83173E+04 1.24217E+08-2.75013E+06
 -1       240 8.28836E-06 1.06088E-05-2.17857E-05 1.65058E-06 1.09684E+08-4.84295E+06
 -1       241 1.74586E+04 7.85109E+03-7.99243E+05-1.83173E+04 1.24217E+08-2.75013E+06
 -1       242-1.77813E+05-3.95406E+05 1.81014E+07 8.08776E+02 6.22855E+07-5.48463E+06
 -1       243 7.45049E-06 6.31652E-06-1.95615E-05-9.45220E-07 8.84952E+07-3.90738E+06
 -1       244-1.14037E+06-3.04507E+06-2.13664E+08-3.27177E+04 3.61341E+07-3.18208E+06
 -1       245 1.34451E+05 5.03514E+04 9.43404E+06 7.40997E+05 7.20684E+07-1.59545E+06
 -1       246 5.64195E-06-3.62983E-07-1.97259E-05-3.07658E-06 6.37075E+07-2.81292E+06
 -1       247-1.34451E+05-5.03514E+04-9.43404E+06-7.40997E+05 7.20684E+07-1.59545E+06
 -1       248 1.14037E+06 3.04507E+06 2.13664E+08 3.27177E+04 3.61341E+07-3.18208E+06
 -1       249 1.20844E-05-1.02057E-05-1.67959E-05 1.71456E-06 1.68630E+07-7.44564E+05
 -1       250-1.16114E+06-3.29000E+06-2.46541E+08-3.52114E+04-1.73634E+07 1.55703E+06
 -1       251 1.45265E+05 5.12686E+04 1.08857E+07 7.97476E+05-3.52639E+07 7.66655E+05
 -1       252 1.67497E-05-1.97095E-05-1.36688E-05 8.17608E-06-3.08542E+07 1.36232E+06
 -1       253-1.45265E+05-5.12686E+04-1.08857E+07-7.97476E+05-3.52639E+07 7.66655E+05
 -1       254 1.16114E+06 3.29000E+06 2.46541E+08 3.52114E+04-1.73634E+07 1.55703E+06
 -1       255 2.17613E-05 1.61384E-05-7.44825E-07 2.28669E-07-5.52493E+07 2.43946E+06
 -1       256 4.63849E+05-5.25079E+04-1.10250E+08 1.17391E+04-4.49729E+07 3.93933E+06
 -1       257 2.31841E+03-2.04806E+04 4.86791E+06-2.65871E+05-8.92187E+07 1.98572E+06
 -1       258 2.76762E-05 4.85784E-05 9.86236E-06-7.99599E-06-7.87580E+07 3.47745E+06
 -1       259-2.31841E+03 2.04806E+04-4.86791E+06 2.65871E+05-8.92187E+07 1.98572E+06
 -1       260-4.63849E+05 5.25079E+04 1.10250E+08-1.17391E+04-4.49729E+07 3.93933E+06
 -1       261 2.28543E-05 4.05775E-05 1.78805E-05-2.30783E-06-4.72492E+07 2.08622E+06
 -3
    1PSTEP                        15           1           2          
    1PGM                1.000000E+00                                  
    1PGK                1.475220E+12                                  
    1PHID                         -1                                  
    1PSUBC                         0                                  
    1PMODE                         8                                  
  100CL  109 1.93307E+05         261                     2    9MODAL      1
 -4  DISP        4    1
 -5  D1          1    2    1    0
 -5  D2          1    2    2    0
 -5  D3          1    2    3    0
 -5  ALL         1    2    0    0    1ALL
 -1         1 0.00000E+00 0.00000E+00 0.00000E+00
 -1         2 0.00000E+00 0.00000E+00 0.00000E+00
 -1         3 0.00000E+00 0.00000E+00 0.00000E+00
 -1         4 0.00000E+00 0.00000E+00 0.00000E+00
 -1         5-7.19059E+03-3.03705E+02-3.48876E+03
 -1         6-7.19181E+03-3.31329E+02 3.19371E+03
 -1         7-7.19059E+03-3.03705E+02 3.48876E+03
 -1         8-7.19181E+03-3.31329E+02-3.19371E+03
 -1         9 0.00000E+00 0.00000E+00 0.00000E+00
 -1        10 0.00000E+00 0.00000E+00 0.00000E+00
 -1        11 0.00000E+00 0.00000E+00 0.00000E+00
 -1        12 0.00000E+00 0.00000E+00 0.00000E+00
 -1        13 0.00000E+00 0.00000E+00 0.00000E+00
 -1        14 0.00000E+00 0.00000E+00 0.00000E+00
 -1        15 0.00000E+00 0.00000E+00 0.00000E+00
 -1        16 0.00000E+00 0.00000E+00 0.00000E+00
 -1        17 0.00000E+00 0.00000E+00 0.00000E+00
 -1        18 0.00000E+00 0.00000E+00 0.00000E+00
 -1        19 0.00000E+00 0.00000E+00 0.00000E+00
 -1        20 0.00000E+00 0.00000E+00 0.00000E+00
 -1        21-7.18611E+03-3.15768E+02-1.79588E+03
 -1        22-7.16171E+03-3.17662E+02-1.47381E+02
 -1        23-7.18657E+03-3.19018E+02 1.50045E+03
 -1        24-7.18846E+03-3.22501E+02 3.27265E+03
 -1        25-7.19448E+03-3.16215E+02 3.33793E+03
 -1        26-7.18831E+03-3.12105E+02 3.41820E+03
 -1        27-7.18611E+03-3.15768E+02 1.79588E+03
 -1        28-7.16171E+03-3.17662E+02 1.47381E+02
 -1        29-7.18657E+03-3.19018E+02-1.50045E+03
 -1        30-7.18846E+03-3.22501E+02-3.27265E+03
 -1        31-7.19448E+03-3.16215E+02-3.33793E+03
 -1        32-7.18831E+03-3.12105E+02-3.41820E+03
 -1        33-1.15439E+03 2.05337E+02 9.34292E+02
 -1        34-2.92029E+03-1.76499E+02 1.32474E+03
 -1        35-4.77234E+03-3.61306E+02 1.06813E+03
 -1        36-5.83235E+03-5.24252E+02 3.84078E+02
 -1        37-5.87536E+03-5.39895E+02-5.13141E+02
 -1        38-4.73017E+03-4.43728E+02-1.36708E+03
 -1        39-2.64997E+03-2.37275E+02-1.94507E+03
 -1        40-5.90719E+01 2.28327E+01-2.11253E+03
 -1        41 2.43950E+03 2.81167E+02-1.77890E+03
 -1        42 4.27815E+03 4.76175E+02-1.03047E+03
 -1        43 4.99346E+03 5.64858E+02 7.30231E+00
 -1        44 4.38011E+03 5.27532E+02 1.12101E+03
 -1        45 2.49291E+03 3.74621E+02 2.08588E+03
 -1        46-3.76234E+02 1.45681E+02 2.78199E+03
 -1        47-3.73848E+03-1.10372E+02 3.10155E+03
 -1        48-3.74332E+03-2.19976E+02-3.38809E+03
 -1        49-3.90593E+02-1.79539E+02-3.03900E+03
 -1        50 2.46951E+03-1.55512E+02-2.27859E+03
 -1        51 4.35054E+03-1.42042E+02-1.22457E+03
 -1        52 4.96299E+03-1.25245E+02-7.97695E+00
 -1        53 4.25273E+03-9.95060E+01 1.12568E+03
 -1        54 2.42416E+03-6.64194E+01 1.94325E+03
 -1        55-6.13229E+01-2.81486E+01 2.30770E+03
 -1        56-2.63933E+03 3.73426E+00 2.12477E+03
 -1        57-4.70939E+03 2.69375E+01 1.49338E+03
 -1        58-5.85054E+03 2.21546E+01 5.60548E+02
 -1        59-5.80875E+03 1.02554E+01-4.19562E+02
 -1        60-4.75902E+03-5.95384E+01-1.16681E+03
 -1        61-2.91609E+03-8.11984E+01-1.44713E+03
 -1        62-1.17707E+03-3.08280E+02-1.02061E+03
 -1        63-1.17707E+03-3.08280E+02 1.02061E+03
 -1        64-2.91609E+03-8.11984E+01 1.44713E+03
 -1        65-4.75902E+03-5.95384E+01 1.16681E+03
 -1        66-5.80875E+03 1.02554E+01 4.19562E+02
 -1        67-5.85054E+03 2.21546E+01-5.60548E+02
 -1        68-4.70939E+03 2.69375E+01-1.49338E+03
 -1        69-2.63933E+03 3.73426E+00-2.12477E+03
 -1        70-6.13229E+01-2.81486E+01-2.30770E+03
 -1        71 2.42416E+03-6.64194E+01-1.94325E+03
 -1        72 4.25273E+03-9.95060E+01-1.12568E+03
 -1        73 4.96299E+03-1.25245E+02 7.97695E+00
 -1        74 4.35054E+03-1.42042E+02 1.22457E+03
 -1        75 2.46951E+03-1.55512E+02 2.27859E+03
 -1        76-3.90593E+02-1.79539E+02 3.03900E+03
 -1        77-3.74332E+03-2.19976E+02 3.38809E+03
 -1        78-1.15439E+03 2.05337E+02-9.34292E+02
 -1        79-2.92029E+03-1.76499E+02-1.32474E+03
 -1        80-4.77234E+03-3.61306E+02-1.06813E+03
 -1        81-5.83235E+03-5.24252E+02-3.84078E+02
 -1        82-5.87536E+03-5.39895E+02 5.13141E+02
 -1        83-4.73017E+03-4.43728E+02 1.36708E+03
 -1        84-2.64997E+03-2.37275E+02 1.94507E+03
 -1        85-5.90719E+01 2.28327E+01 2.11253E+03
 -1        86 2.43950E+03 2.81167E+02 1.77890E+03
 -1        87 4.27815E+03 4.76175E+02 1.03047E+03
 -1        88 4.99346E+03 5.64858E+02-7.30231E+00
 -1        89 4.38011E+03 5.27532E+02-1.12101E+03
 -1        90 2.49291E+03 3.74621E+02-2.08588E+03
 -1        91-3.76234E+02 1.45681E+02-2.78199E+03
 -1        92-3.73848E+03-1.10372E+02-3.10155E+03
 -1        93 0.00000E+00 0.00000E+00 0.00000E+00
 -1        94 0.00000E+00 0.00000E+00 0.00000E+00
 -1        95 0.00000E+00 0.00000E+00 0.00000E+00
 -1        96 0.00000E+00 0.00000E+00 0.00000E+00
 -1        97 0.00000E+00 0.00000E+00 0.00000E+00
 -1        98-7.16822E+03-3.17451E+02-7.31828E+01
 -1        99-7.18970E+03-3.16503E+02-1.65746E+03
 -1       100-7.17668E+03-3.16876E+02-1.05501E-10
 -1       101-7.18970E+03-3.16503E+02 1.65746E+03
 -1       102-7.16822E+03-3.17451E+02 7.31828E+01
 -1       103-1.02703E+03-5.59470E+01-4.33703E+01
 -1       104-2.94445E+03-1.06110E+02-6.33192E+02
 -1       105-3.00283E+03-1.29073E+02-6.40132E+01
 -1       106-2.94662E+03-1.52986E+02 5.05514E+02
 -1       107-4.79018E+03-2.06732E+02-5.03483E+01
 -1       108-5.93536E+03-1.19944E+02-1.88363E+02
 -1       109-5.98046E+03-2.51614E+02-1.86083E+01
 -1       110-5.94716E+03-3.85144E+02 1.51406E+02
 -1       111-5.97588E+03-2.52532E+02 2.38489E+01
 -1       112-4.80820E+03-8.72922E+01 7.34673E+02
 -1       113-4.84441E+03-2.03421E+02 6.38458E+01
 -1       114-4.81859E+03-3.21795E+02-6.06696E+02
 -1       115-2.69209E+03-1.14068E+02 9.11046E+01
 -1       116-5.37389E+01-1.58883E+01 1.12193E+03
 -1       117-5.19184E+01-3.27130E+00 9.89288E+01
 -1       118-5.26121E+01 9.69954E+00-9.23573E+02
 -1       119 2.51120E+03 1.03541E+02 8.34276E+01
 -1       120 4.36736E+03 4.01162E+01 5.39734E+02
 -1       121 4.40338E+03 1.82040E+02 4.83924E+01
 -1       122 4.38007E+03 3.26830E+02-4.42695E+02
 -1       123 5.13233E+03 2.12142E+02-1.08380E-01
 -1       124 4.48600E+03 2.01902E+01-6.14874E+02
 -1       125 4.53190E+03 1.85506E+02-5.20895E+01
 -1       126 4.50079E+03 3.54106E+02 5.10477E+02
 -1       127 2.60043E+03 1.03610E+02-9.72440E+01
 -1       128-3.18823E+02-9.97317E+01-1.52872E+03
 -1       129-2.89339E+02-2.02184E+01-1.29382E+02
 -1       130-3.11652E+02 6.08184E+01 1.26944E+03
 -1       131-3.71405E+03-1.66713E+02-1.44132E+02
 -1       132-1.26710E+03-4.53472E+01 9.82259E+02
 -1       133-2.93507E+03-1.54612E+02 1.42070E+03
 -1       134-2.92328E+03-1.32586E+02 1.44979E+03
 -1       135-2.93300E+03-1.05500E+02 1.47098E+03
 -1       136-4.68211E+03-2.11504E+02 1.14030E+03
 -1       137-5.72553E+03-3.95973E+02 4.11011E+02
 -1       138-5.69860E+03-2.64059E+02 4.21444E+02
 -1       139-5.71382E+03-1.28683E+02 4.26013E+02
 -1       140-5.71940E+03-2.63857E+02-5.40135E+02
 -1       141-4.63773E+03-3.30165E+02-1.41961E+03
 -1       142-4.60712E+03-2.13898E+02-1.44599E+03
 -1       143-4.62737E+03-9.48920E+01-1.47884E+03
 -1       144-2.58343E+03-1.18866E+02-2.06336E+03
 -1       145-6.95179E+01 1.04118E+01-2.20102E+03
 -1       146-7.40891E+01-2.29238E+00-2.24056E+03
 -1       147-7.06477E+01-1.51075E+01-2.29134E+03
 -1       148 2.34502E+03 1.10879E+02-1.88949E+03
 -1       149 4.16167E+03 3.37020E+02-1.07719E+03
 -1       150 4.12288E+03 1.94425E+02-1.09600E+03
 -1       151 4.14901E+03 4.92109E+01-1.12057E+03
 -1       152 4.80464E+03 2.26611E+02 2.45461E+00
 -1       153 4.24594E+03 3.65857E+02 1.15736E+03
 -1       154 4.20139E+03 2.00100E+02 1.17973E+03
 -1       155 4.23119E+03 3.09419E+01 1.20705E+03
 -1       156 2.34659E+03 1.14818E+02 2.20240E+03
 -1       157-4.37114E+02 6.72842E+01 2.87435E+03
 -1       158-4.57910E+02-1.27753E+01 2.93027E+03
 -1       159-4.44203E+02-9.51220E+01 2.99790E+03
 -1       160-3.77575E+03-1.63989E+02 3.26434E+03
 -1       161-1.02703E+03-5.59470E+01 4.33703E+01
 -1       162-2.94445E+03-1.06110E+02 6.33192E+02
 -1       163-3.00283E+03-1.29073E+02 6.40132E+01
 -1       164-2.94662E+03-1.52986E+02-5.05514E+02
 -1       165-4.79018E+03-2.06732E+02 5.03483E+01
 -1       166-5.93536E+03-1.19944E+02 1.88363E+02
 -1       167-5.98046E+03-2.51614E+02 1.86083E+01
 -1       168-5.94716E+03-3.85144E+02-1.51406E+02
 -1       169-5.97588E+03-2.52532E+02-2.38489E+01
 -1       170-4.80820E+03-8.72922E+01-7.34673E+02
 -1       171-4.84441E+03-2.03421E+02-6.38458E+01
 -1       172-4.81859E+03-3.21795E+02 6.06696E+02
 -1       173-2.69209E+03-1.14068E+02-9.11046E+01
 -1       174-5.37389E+01-1.58883E+01-1.12193E+03
 -1       175-5.19184E+01-3.27130E+00-9.89288E+01
 -1       176-5.26121E+01 9.69954E+00 9.23573E+02
 -1       177 2.51120E+03 1.03541E+02-8.34276E+01
 -1       178 4.36736E+03 4.01162E+01-5.39734E+02
 -1       179 4.40338E+03 1.82040E+02-4.83924E+01
 -1       180 4.38007E+03 3.26830E+02 4.42695E+02
 -1       181 5.13233E+03 2.12142E+02 1.08380E-01
 -1       182 4.48600E+03 2.01902E+01 6.14874E+02
 -1       183 4.53190E+03 1.85506E+02 5.20895E+01
 -1       184 4.50079E+03 3.54106E+02-5.10477E+02
 -1       185 2.60043E+03 1.03610E+02 9.72440E+01
 -1       186-3.18823E+02-9.97317E+01 1.52872E+03
 -1       187-2.89339E+02-2.02184E+01 1.29382E+02
 -1       188-3.11652E+02 6.08184E+01-1.26944E+03
 -1       189-3.71405E+03-1.66713E+02 1.44132E+02
 -1       190-1.26710E+03-4.53472E+01-9.82259E+02
 -1       191-2.93507E+03-1.54612E+02-1.42070E+03
 -1       192-2.92328E+03-1.32586E+02-1.44979E+03
 -1       193-2.93300E+03-1.05500E+02-1.47098E+03
 -1       194-4.68211E+03-2.11504E+02-1.14030E+03
 -1       195-5.72553E+03-3.95973E+02-4.11011E+02
 -1       196-5.69860E+03-2.64059E+02-4.21444E+02
 -1       197-5.71382E+03-1.28683E+02-4.26013E+02
 -1       198-5.71940E+03-2.63857E+02 5.40135E+02
 -1       199-4.63773E+03-3.30165E+02 1.41961E+03
 -1       200-4.60712E+03-2.13898E+02 1.44599E+03
 -1       201-4.62737E+03-9.48920E+01 1.47884E+03
 -1       202-2.58343E+03-1.18866E+02 2.06336E+03
 -1       203-6.95179E+01 1.04118E+01 2.20102E+03
 -1       204-7.40891E+01-2.29238E+00 2.24056E+03
 -1       205-7.06477E+01-1.51075E+01 2.29134E+03
 -1       206 2.34502E+03 1.10879E+02 1.88949E+03
 -1       207 4.16167E+03 3.37020E+02 1.07719E+03
 -1       208 4.12288E+03 1.94425E+02 1.09600E+03
 -1       209 4.14901E+03 4.92109E+01 1.12057E+03
 -1       210 4.80464E+03 2.26611E+02-2.45461E+00
 -1       211 4.24594E+03 3.65857E+02-1.15736E+03
 -1       212 4.20139E+03 2.00100E+02-1.17973E+03
 -1       213 4.23119E+03 3.09419E+01-1.20705E+03
 -1       214 2.34659E+03 1.14818E+02-2.20240E+03
 -1       215-4.37114E+02 6.72842E+01-2.87435E+03
 -1       216-4.57910E+02-1.27753E+01-2.93027E+03
 -1       217-4.44203E+02-9.51220E+01-2.99790E+03
 -1       218-3.77575E+03-1.63989E+02-3.26434E+03
 -1       219-1.11576E+03-4.92649E+01-6.82121E-12
 -1       220-3.01673E+03-1.30124E+02-2.74841E+01
 -1       221-2.94707E+03-1.33200E+02-6.22466E+02
 -1       222-3.00330E+03-1.32606E+02-1.43245E-11
 -1       223-2.94707E+03-1.33200E+02 6.22466E+02
 -1       224-3.01673E+03-1.30124E+02 2.74841E+01
 -1       225-4.71747E+03-2.08293E+02-2.91038E-11
 -1       226-5.87908E+03-2.56933E+02-8.22222E+00
 -1       227-5.81907E+03-2.59582E+02-1.86219E+02
 -1       228-5.85545E+03-2.58539E+02-3.77440E-11
 -1       229-5.81907E+03-2.59582E+02 1.86219E+02
 -1       230-5.87908E+03-2.56933E+02 8.22222E+00
 -1       231-5.84235E+03-2.57961E+02-4.59295E-11
 -1       232-4.75741E+03-2.07577E+02 3.03772E+01
 -1       233-4.70124E+03-2.10057E+02 6.87990E+02
 -1       234-4.73137E+03-2.08907E+02-5.72982E-11
 -1       235-4.70124E+03-2.10057E+02-6.87990E+02
 -1       236-4.75741E+03-2.07577E+02-3.03772E+01
 -1       237-2.63537E+03-1.16361E+02-7.00311E-11
 -1       238-6.12515E+01-2.93551E+00 4.65971E+01
 -1       239-6.64842E+01-2.70447E+00 1.05534E+03
 -1       240-6.46247E+01-2.85341E+00-7.63976E-11
 -1       241-6.64842E+01-2.70447E+00-1.05534E+03
 -1       242-6.12515E+01-2.93551E+00-4.65971E+01
 -1       243 2.42734E+03 1.07176E+02-8.39009E-11
 -1       244 4.29502E+03 1.86902E+02 2.25312E+01
 -1       245 4.23300E+03 1.89641E+02 5.10291E+02
 -1       246 4.26322E+03 1.88237E+02-9.12905E-11
 -1       247 4.23300E+03 1.89641E+02-5.10291E+02
 -1       248 4.29502E+03 1.86902E+02-2.25312E+01
 -1       249 4.96627E+03 2.19279E+02-1.00041E-10
 -1       250 4.40508E+03 1.91182E+02-2.52427E+01
 -1       251 4.32994E+03 1.94500E+02-5.71701E+02
 -1       252 4.36677E+03 1.92809E+02-1.03910E-10
 -1       253 4.32994E+03 1.94500E+02 5.71701E+02
 -1       254 4.40508E+03 1.91182E+02 2.52427E+01
 -1       255 2.47283E+03 1.09184E+02-1.10049E-10
 -1       256-3.50367E+02-1.74782E+01-6.27016E+01
 -1       257-3.95849E+02-1.54700E+01-1.42008E+03
 -1       258-3.72682E+02-1.64552E+01-1.12323E-10
 -1       259-3.95849E+02-1.54700E+01 1.42008E+03
 -1       260-3.50367E+02-1.74782E+01 6.27016E+01
 -1       261-3.74697E+03-1.65442E+02-1.13687E-10
 -3
    1PSTEP                        16           1           2          
    1PGM                1.000000E+00                                  
    1PGK                1.475220E+12                                  
    1PHID                         -1                                  
    1PSUBC                         0                                  
    1PMODE                         8                                  
  100CL  109 1.93307E+05         261                     2    9MODAL      1
 -4  STRESS      6    1
 -5  SXX         1    4    1    1
 -5  SYY         1    4    2    2
 -5  SZZ         1    4    3    3
 -5  SXY         1    4    1    2
 -5  SYZ         1    4    2    3
 -5  SZX         1    4    3    1
 -1         1-1.90637E+08-1.70131E+08-6.45927E+08 2.04558E+07-8.88310E+07-1.14045E+08
 -1         2 1.76329E+08 1.53928E+08 5.91299E+08 1.87258E+07 7.90874E+07-1.06631E+08
 -1         3 1.90637E+08 1.70131E+08 6.45927E+08-2.04558E+07-8.88310E+07-1.14045E+08
 -1         4-1.76329E+08-1.53928E+08-5.91299E+08-1.87258E+07 7.90874E+07-1.06631E+08
 -1         5 1.33705E+07-2.35924E+06 2.04538E+07 5.04504E+06 1.31641E+06-4.24261E+06
 -1         6-1.36315E+07 3.55147E+06-1.87240E+07 4.61836E+06-1.69694E+06-4.37566E+06
 -1         7-1.33705E+07 2.35924E+06-2.04538E+07-5.04504E+06 1.31641E+06-4.24261E+06
 -1         8 1.36315E+07-3.55147E+06 1.87240E+07-4.61836E+06-1.69694E+06-4.37566E+06
 -1         9-5.96673E+07-6.93446E+07-3.10155E+08 2.03442E+07-4.76378E+07-8.62726E+07
 -1        10-6.92173E+06-7.77080E+06-2.68699E+07 2.07024E+07-6.42324E+06-5.86303E+07
 -1        11 4.55914E+07 5.34724E+07 2.55971E+08 1.99490E+07 3.63427E+07-8.26956E+07
 -1        12 1.77028E+08 1.57073E+08 6.01086E+08 3.58602E+06 3.67757E+07-1.26052E+08
 -1        13 1.75995E+08 1.56765E+08 6.08556E+08-9.14087E+05-2.58874E+06-1.45475E+08
 -1        14 1.82450E+08 1.61721E+08 6.26083E+08-5.36512E+06-4.42363E+07-1.29760E+08
 -1        15 5.96673E+07 6.93446E+07 3.10155E+08-2.03442E+07-4.76378E+07-8.62726E+07
 -1        16 6.92173E+06 7.77080E+06 2.68699E+07-2.07024E+07-6.42324E+06-5.86303E+07
 -1        17-4.55914E+07-5.34724E+07-2.55971E+08-1.99490E+07 3.63427E+07-8.26956E+07
 -1        18-1.77028E+08-1.57073E+08-6.01086E+08-3.58602E+06 3.67757E+07-1.26052E+08
 -1        19-1.75995E+08-1.56765E+08-6.08556E+08 9.14087E+05-2.58874E+06-1.45475E+08
 -1        20-1.82450E+08-1.61721E+08-6.26083E+08 5.36512E+06-4.42363E+07-1.29760E+08
 -1        21 1.06745E+07 5.97292E+05 1.00124E+07 2.63213E+06-1.07285E+04-1.27530E+07
 -1        22 4.49199E+04 1.15724E+05 1.04698E+06 5.02676E+05 1.71301E+04-2.13076E+07
 -1        23-1.07600E+07 1.14548E+05-8.10051E+06 2.70224E+06-1.62405E+05-1.28637E+07
 -1        24-8.05030E+06 1.44221E+06-2.12507E+07-9.11744E+05-1.81958E+06-1.96393E+06
 -1        25-2.62095E+06-1.01735E+06-2.37122E+07-2.21949E+04-9.40806E+05 3.87966E+05
 -1        26-8.07162E+06 4.95796E+05-2.20504E+07 6.76213E+05 6.88507E+05-1.95724E+06
 -1        27-1.06745E+07-5.97292E+05-1.00124E+07-2.63213E+06-1.07285E+04-1.27530E+07
 -1        28-4.49199E+04-1.15724E+05-1.04698E+06-5.02676E+05 1.71301E+04-2.13076E+07
 -1        29 1.07600E+07-1.14548E+05 8.10051E+06-2.70224E+06-1.62405E+05-1.28637E+07
 -1        30 8.05030E+06-1.44221E+06 2.12507E+07 9.11744E+05-1.81958E+06-1.96393E+06
 -1        31 2.62095E+06 1.01735E+06 2.37122E+07 2.21949E+04-9.40806E+05 3.87966E+05
 -1        32 8.07162E+06-4.95796E+05 2.20504E+07-6.76213E+05 6.88507E+05-1.95724E+06
 -1        33 5.68074E+07 3.77066E+07 2.93093E+08 1.04584E+07 6.22624E+06-5.17279E+07
 -1        34-4.06229E+07-3.49739E+07-8.33126E+06-5.54819E+06-2.75251E+07-1.44463E+07
 -1        35-1.48185E+07-6.46089E+05-1.92258E+08-4.28709E+06-9.07555E+05-1.48511E+07
 -1        36 1.08486E+06-1.28645E+06-3.72118E+08 2.89977E+06-6.79255E+06-8.58001E+06
 -1        37-7.54755E+04 1.05908E+06-3.59008E+08 2.74783E+05 7.40795E+05-8.53119E+05
 -1        38-6.21783E+06-1.64025E+06-3.35211E+08-5.48358E+05 3.43813E+06 1.44088E+07
 -1        39-2.91280E+06-4.89422E+05-1.53470E+08-5.12287E+05 5.79186E+06 1.77429E+07
 -1        40 2.33956E+05 2.16852E+03 3.46106E+07 1.69441E+05 6.68124E+06 2.29443E+07
 -1        41 2.45107E+06 4.46486E+05 2.24232E+08 3.09851E+05 5.56200E+06 1.77729E+07
 -1        42 1.60479E+06-4.70000E+05 4.04898E+08 1.51584E+04 3.88685E+06 1.32460E+07
 -1        43 4.57953E+06 8.26627E+05 4.45248E+08 4.01209E+05 1.00987E+06 3.30680E+06
 -1        44 1.83003E+06-3.28243E+05 4.67372E+08 8.20027E+04-2.11049E+06-5.49123E+06
 -1        45 2.53221E+06 1.22527E+05 3.45445E+08 2.66354E+04-3.78384E+06-1.27087E+07
 -1        46 2.92567E+06-6.17034E+05 2.11758E+08-1.01755E+06-5.17444E+06-1.70070E+07
 -1        47-6.37608E+06 4.00042E+05 8.59840E+07 1.05286E+06-3.54050E+06-9.11038E+06
 -1        48 6.36559E+06 1.62548E+05-9.39277E+07 1.15013E+06 2.74825E+06-8.83270E+06
 -1        49-2.88250E+06 3.60582E+05-2.31322E+08-1.11155E+06 3.68988E+06-1.66156E+07
 -1        50-2.55294E+06-3.47055E+05-3.77360E+08 2.90961E+04 2.67415E+06-1.24236E+07
 -1        51-1.80813E+06 1.67605E+05-5.10551E+08 8.95787E+04 1.63288E+06-5.32594E+06
 -1        52-4.67056E+06-1.23505E+06-4.86383E+08 4.38275E+05-7.21226E+05 3.23037E+06
 -1        53-1.56948E+06 3.29845E+05-4.42305E+08 1.65588E+04-2.73003E+06 1.29539E+07
 -1        54-2.50015E+06-6.65101E+05-2.44948E+08 3.38477E+05-4.01119E+06 1.73502E+07
 -1        55-2.35062E+05-2.28773E+04-3.78082E+07 1.85095E+05-4.67724E+06 2.24427E+07
 -1        56 2.96748E+06 7.49058E+05 1.67649E+08-5.59616E+05-4.24460E+06 1.72997E+07
 -1        57 6.38725E+06 2.19681E+06 3.66180E+08-5.99018E+05-2.17668E+06 1.41609E+07
 -1        58-1.79363E+04-1.05654E+06 3.92176E+08 3.00169E+05-8.19173E+05-9.21997E+05
 -1        59-9.75275E+05 1.19549E+06 4.06497E+08 3.16767E+06 6.05993E+06-8.01253E+06
 -1        60 1.49336E+07 1.95975E+06 2.10020E+08-4.68316E+06-4.02920E+05-1.48288E+07
 -1        61 4.38761E+07 3.87049E+07 9.10095E+06-6.06077E+06 2.63544E+07-1.20673E+07
 -1        62-6.03656E+07-4.28802E+07-3.20170E+08 1.14246E+07-1.08274E+07-5.24809E+07
 -1        63 6.03656E+07 4.28802E+07 3.20170E+08-1.14246E+07-1.08274E+07-5.24809E+07
 -1        64-4.38761E+07-3.87049E+07-9.10095E+06 6.06077E+06 2.63544E+07-1.20673E+07
 -1        65-1.49336E+07-1.95975E+06-2.10020E+08 4.68316E+06-4.02920E+05-1.48288E+07
 -1        66 9.75275E+05-1.19549E+06-4.06497E+08-3.16767E+06 6.05993E+06-8.01253E+06
 -1        67 1.79363E+04 1.05654E+06-3.92176E+08-3.00169E+05-8.19173E+05-9.21997E+05
 -1        68-6.38725E+06-2.19681E+06-3.66180E+08 5.99018E+05-2.17668E+06 1.41609E+07
 -1        69-2.96748E+06-7.49058E+05-1.67649E+08 5.59616E+05-4.24460E+06 1.72997E+07
 -1        70 2.35062E+05 2.28773E+04 3.78082E+07-1.85095E+05-4.67724E+06 2.24427E+07
 -1        71 2.50015E+06 6.65101E+05 2.44948E+08-3.38477E+05-4.01119E+06 1.73502E+07
 -1        72 1.56948E+06-3.29845E+05 4.42305E+08-1.65588E+04-2.73003E+06 1.29539E+07
 -1        73 4.67056E+06 1.23505E+06 4.86383E+08-4.38275E+05-7.21226E+05 3.23037E+06
 -1        74 1.80813E+06-1.67605E+05 5.10551E+08-8.95787E+04 1.63288E+06-5.32594E+06
 -1        75 2.55294E+06 3.47055E+05 3.77360E+08-2.90961E+04 2.67415E+06-1.24236E+07
 -1        76 2.88250E+06-3.60582E+05 2.31322E+08 1.11155E+06 3.68988E+06-1.66156E+07
 -1        77-6.36559E+06-1.62548E+05 9.39277E+07-1.15013E+06 2.74825E+06-8.83270E+06
 -1        78-5.68074E+07-3.77066E+07-2.93093E+08-1.04584E+07 6.22624E+06-5.17279E+07
 -1        79 4.06229E+07 3.49739E+07 8.33126E+06 5.54819E+06-2.75251E+07-1.44463E+07
 -1        80 1.48185E+07 6.46089E+05 1.92258E+08 4.28709E+06-9.07555E+05-1.48511E+07
 -1        81-1.08486E+06 1.28645E+06 3.72118E+08-2.89977E+06-6.79255E+06-8.58001E+06
 -1        82 7.54755E+04-1.05908E+06 3.59008E+08-2.74783E+05 7.40795E+05-8.53119E+05
 -1        83 6.21783E+06 1.64025E+06 3.35211E+08 5.48358E+05 3.43813E+06 1.44088E+07
 -1        84 2.91280E+06 4.89422E+05 1.53470E+08 5.12287E+05 5.79186E+06 1.77429E+07
 -1        85-2.33956E+05-2.16852E+03-3.46106E+07-1.69441E+05 6.68124E+06 2.29443E+07
 -1        86-2.45107E+06-4.46486E+05-2.24232E+08-3.09851E+05 5.56200E+06 1.77729E+07
 -1        87-1.60479E+06 4.70000E+05-4.04898E+08-1.51584E+04 3.88685E+06 1.32460E+07
 -1        88-4.57953E+06-8.26627E+05-4.45248E+08-4.01209E+05 1.00987E+06 3.30680E+06
 -1        89-1.83003E+06 3.28243E+05-4.67372E+08-8.20027E+04-2.11049E+06-5.49123E+06
 -1        90-2.53221E+06-1.22527E+05-3.45445E+08-2.66354E+04-3.78384E+06-1.27087E+07
 -1        91-2.92567E+06 6.17034E+05-2.11758E+08 1.01755E+06-5.17444E+06-1.70070E+07
 -1        92 6.37608E+06-4.00042E+05-8.59840E+07-1.05286E+06-3.54050E+06-9.11038E+06
 -1        93-2.59604E+06-2.11018E+06-1.23274E+07 5.58681E+06-5.19991E+06-7.43464E+07
 -1        94-4.77919E+07-5.87958E+07-2.79193E+08 2.46678E+05-3.28266E+06-1.17769E+08
 -1        95-7.67410E-07-4.74975E-07-3.02307E-06 7.13859E-07-3.97658E+06-9.00626E+07
 -1        96 4.77919E+07 5.87958E+07 2.79193E+08-2.46678E+05-3.28266E+06-1.17769E+08
 -1        97 2.59604E+06 2.11018E+06 1.23274E+07-5.58681E+06-5.19991E+06-7.43464E+07
 -1        98 1.00105E+05 2.34026E+05 4.97688E+05 6.85367E+04-2.80200E+05-1.71938E+07
 -1        99 5.30027E+06 2.26720E+06 1.12718E+07 3.02614E+03-7.59168E+05-6.34602E+06
 -1       100 6.35604E-06-2.23366E-06 5.99620E-06-2.67819E-06-5.77529E+05-1.30800E+07
 -1       101-5.30027E+06-2.26720E+06-1.12718E+07-3.02614E+03-7.59168E+05-6.34602E+06
 -1       102-1.00105E+05-2.34026E+05-4.97688E+05-6.85367E+04-2.80200E+05-1.71938E+07
 -1       103-2.14408E+06-2.74324E+06-1.44188E+07 1.25555E+07-2.51927E+06-1.38682E+08
 -1       104 8.63697E+06 1.46934E+07-2.15053E+05-5.46222E+06 1.21530E+07-1.02182E+08
 -1       105 1.41688E+06 1.85553E+06 5.68886E+04-5.03416E+06 2.55954E+05-1.92647E+08
 -1       106-5.59350E+06-1.09724E+07 6.56789E+05-5.37641E+06-1.24823E+07-1.03722E+08
 -1       107 2.06140E+05 7.61991E+05 9.45641E+06-4.98736E+06-3.94770E+05-1.20670E+08
 -1       108 8.91479E+06 2.73936E+06 2.09538E+08 2.88972E+06 2.55211E+06-3.44612E+07
 -1       109 5.58627E+04-1.97916E+05 1.73540E+07 2.76451E+06-2.54127E+05-6.09915E+07
 -1       110-8.80413E+06-2.98275E+06-1.74995E+08 2.90852E+06-3.17254E+06-3.48265E+07
 -1       111 9.23197E+04-4.18865E+03 1.70496E+07-2.36090E+05-4.06173E+04 1.06420E+07
 -1       112 4.88360E+06 6.70575E+05 1.87349E+08-8.77488E+05-3.59327E+05 4.47138E+07
 -1       113 1.80965E+05 2.55611E+05 1.58133E+07-1.16495E+06 4.18250E+05 7.54013E+07
 -1       114-4.61793E+06-1.36685E+05-1.56051E+08-8.61150E+05 1.40830E+06 4.49723E+07
 -1       115 9.48257E+04 1.36211E+05 7.29703E+06-8.18615E+05 5.15257E+05 1.10007E+08
 -1       116 5.21678E+05 2.23047E+05-1.95634E+07 1.92397E+05-1.06364E+06 8.04606E+07
 -1       117-4.65917E+03-1.73511E+04-1.61208E+06 2.06293E+05 6.57299E+05 1.38750E+08
 -1       118-5.26890E+05-2.50752E+05 1.63525E+07 1.91165E+05 2.72294E+06 8.09828E+07
 -1       119-7.69028E+04-1.08716E+05-1.05334E+07 5.47626E+05 5.16913E+05 1.11976E+08
 -1       120-3.35661E+06 1.81810E+05-2.27721E+08 2.44228E+05-6.29291E+05 4.66147E+07
 -1       121-9.24063E+04-7.02619E+04-1.90625E+07 4.47857E+05 3.77988E+05 8.04292E+07
 -1       122 3.28186E+06-3.22150E+05 1.89955E+08 2.19487E+05 1.58569E+06 4.69145E+07
 -1       123-1.41280E+05-1.82338E+05-2.09204E+07 9.31623E+05 9.85468E+04 2.11912E+07
 -1       124-3.62127E+06 3.20127E+04-2.63429E+08 2.89040E+05 4.51751E+05-2.24586E+07
 -1       125-8.66075E+04-7.05761E+04-2.19561E+07 4.70365E+05-1.70987E+05-3.96735E+07
 -1       126 3.54561E+06-1.82908E+05 2.19883E+08 2.67116E+05-8.61546E+05-2.26235E+07
 -1       127-6.67777E+04-1.02663E+05-1.61433E+07 3.92316E+05-3.56612E+05-7.00787E+07
 -1       128-1.06611E+06 1.30952E+05-1.20505E+08-6.10204E+05 8.92356E+05-5.80408E+07
 -1       129 5.64627E+04-1.72196E+04-9.71440E+06-1.65018E+05-4.93986E+05-9.96795E+07
 -1       130 1.14416E+06-2.76398E+05 1.01009E+08-6.19364E+05-2.12862E+06-5.84500E+07
 -1       131 1.23847E+05 1.53220E+05-3.81964E+06-2.57492E+05-2.32116E+05-6.27649E+07
 -1       132 6.21294E+07 4.85596E+07 3.26560E+08-5.54368E+05-6.12331E+06-5.70569E+07
 -1       133-4.15704E+07-3.41505E+07-5.02151E+06-7.32476E+05-2.19879E+07-4.27381E+06
 -1       134-4.20245E+07-3.20898E+07-1.28843E+06 2.22276E+05-8.50605E+06 5.79690E+06
 -1       135-4.27036E+07-3.47788E+07-4.98302E+06 1.21104E+06 1.28965E+07-3.18607E+06
 -1       136-1.72577E+07-4.66871E+06-2.14171E+08 2.20210E+05-5.32803E+06-8.94084E+06
 -1       137 2.88259E+06-8.61903E+05-3.82683E+08-3.40852E+05-5.66631E+06-7.15228E+06
 -1       138 4.48246E+06-1.26519E+06-3.93036E+08-1.22063E+05-2.69299E+06-5.75553E+06
 -1       139 2.62994E+06-1.64426E+06-3.99661E+08 8.48387E+04 2.60701E+06-6.89952E+06
 -1       140 9.48654E+04-2.09088E+06-3.86143E+08 1.04242E+04 4.69884E+05-9.19910E+05
 -1       141-6.02801E+06-2.79877E+06-3.46838E+08-1.46619E+05 4.90647E+06 1.19177E+07
 -1       142-5.78912E+06-4.09853E+06-3.58142E+08 5.14367E+04 3.32924E+06 9.47262E+06
 -1       143-6.06365E+06-3.21829E+06-3.62000E+08 2.23386E+05-9.46502E+05 1.18397E+07
 -1       144-3.08494E+06-2.14763E+06-1.65265E+08 3.61448E+04 4.85719E+06 1.16696E+07
 -1       145 3.24200E+05 8.21714E+04 3.55672E+07 5.48038E+03 9.47744E+06 1.88737E+07
 -1       146 3.92971E+05 1.05522E+05 3.65108E+07-9.10858E+03 6.12631E+06 1.48866E+07
 -1       147 3.03280E+05 3.58734E+04 3.71530E+07-2.24160E+04-2.34913E+06 1.87065E+07
 -1       148 2.46222E+06 1.74171E+06 2.38562E+08-2.41797E+04 4.94416E+06 1.17072E+07
 -1       149 1.60035E+06 6.99902E+05 4.18446E+08 2.69934E+05 5.46000E+06 1.08792E+07
 -1       150 1.59131E+06 2.09284E+06 4.31732E+08-1.97745E+04 3.55124E+06 8.56075E+06
 -1       151 1.57810E+06 9.93014E+05 4.36888E+08-2.90409E+05-1.33035E+06 1.07814E+07
 -1       152 4.12964E+06 3.19974E+06 4.73810E+08-4.11345E+04 9.35666E+05 2.23191E+06
 -1       153 1.71350E+06 6.98569E+05 4.82444E+08 2.35993E+05-2.86317E+06-4.66956E+06
 -1       154 1.59842E+06 1.96151E+06 4.97266E+08-2.07683E+04-1.75173E+06-3.87254E+06
 -1       155 1.70401E+06 1.01501E+06 5.03784E+08-2.60549E+05 8.72639E+05-4.61157E+06
 -1       156 2.32514E+06 1.51240E+06 3.65617E+08-1.73222E+04-3.09422E+06-8.07662E+06
 -1       157 1.65603E+06-9.32589E+05 2.15887E+08 1.30879E+05-7.20623E+06-1.40663E+07
 -1       158 3.89992E+05-1.27878E+06 2.20014E+08 7.28615E+03-4.40121E+06-1.11879E+07
 -1       159 1.63805E+06-8.34998E+05 2.25667E+08-7.65895E+04 2.06275E+06-1.39329E+07
 -1       160-3.47017E+06-2.80491E+06 8.65081E+07 1.13692E+04-2.77130E+06-5.25702E+06
 -1       161 2.14408E+06 2.74324E+06 1.44188E+07-1.25555E+07-2.51927E+06-1.38682E+08
 -1       162-8.63697E+06-1.46934E+07 2.15053E+05 5.46222E+06 1.21530E+07-1.02182E+08
 -1       163-1.41688E+06-1.85553E+06-5.68886E+04 5.03416E+06 2.55954E+05-1.92647E+08
 -1       164 5.59350E+06 1.09724E+07-6.56789E+05 5.37641E+06-1.24823E+07-1.03722E+08
 -1       165-2.06140E+05-7.61991E+05-9.45641E+06 4.98736E+06-3.94770E+05-1.20670E+08
 -1       166-8.91479E+06-2.73936E+06-2.09538E+08-2.88972E+06 2.55211E+06-3.44612E+07
 -1       167-5.58627E+04 1.97916E+05-1.73540E+07-2.76451E+06-2.54127E+05-6.09915E+07
 -1       168 8.80413E+06 2.98275E+06 1.74995E+08-2.90852E+06-3.17254E+06-3.48265E+07
 -1       169-9.23197E+04 4.18865E+03-1.70496E+07 2.36090E+05-4.06173E+04 1.06420E+07
 -1       170-4.88360E+06-6.70575E+05-1.87349E+08 8.77488E+05-3.59327E+05 4.47138E+07
 -1       171-1.80965E+05-2.55611E+05-1.58133E+07 1.16495E+06 4.18250E+05 7.54013E+07
 -1       172 4.61793E+06 1.36685E+05 1.56051E+08 8.61150E+05 1.40830E+06 4.49723E+07
 -1       173-9.48257E+04-1.36211E+05-7.29703E+06 8.18615E+05 5.15257E+05 1.10007E+08
 -1       174-5.21678E+05-2.23047E+05 1.95634E+07-1.92397E+05-1.06364E+06 8.04606E+07
 -1       175 4.65917E+03 1.73511E+04 1.61208E+06-2.06293E+05 6.57299E+05 1.38750E+08
 -1       176 5.26890E+05 2.50752E+05-1.63525E+07-1.91165E+05 2.72294E+06 8.09828E+07
 -1       177 7.69028E+04 1.08716E+05 1.05334E+07-5.47626E+05 5.16913E+05 1.11976E+08
 -1       178 3.35661E+06-1.81810E+05 2.27721E+08-2.44228E+05-6.29291E+05 4.66147E+07
 -1       179 9.24063E+04 7.02619E+04 1.90625E+07-4.47857E+05 3.77988E+05 8.04292E+07
 -1       180-3.28186E+06 3.22150E+05-1.89955E+08-2.19487E+05 1.58569E+06 4.69145E+07
 -1       181 1.41280E+05 1.82338E+05 2.09204E+07-9.31623E+05 9.85468E+04 2.11912E+07
 -1       182 3.62127E+06-3.20127E+04 2.63429E+08-2.89040E+05 4.51751E+05-2.24586E+07
 -1       183 8.66075E+04 7.05761E+04 2.19561E+07-4.70365E+05-1.70987E+05-3.96735E+07
 -1       184-3.54561E+06 1.82908E+05-2.19883E+08-2.67116E+05-8.61546E+05-2.26235E+07
 -1       185 6.67777E+04 1.02663E+05 1.61433E+07-3.92316E+05-3.56612E+05-7.00787E+07
 -1       186 1.06611E+06-1.30952E+05 1.20505E+08 6.10204E+05 8.92356E+05-5.80408E+07
 -1       187-5.64627E+04 1.72196E+04 9.71440E+06 1.65018E+05-4.93986E+05-9.96795E+07
 -1       188-1.14416E+06 2.76398E+05-1.01009E+08 6.19364E+05-2.12862E+06-5.84500E+07
 -1       189-1.23847E+05-1.53220E+05 3.81964E+06 2.57492E+05-2.32116E+05-6.27649E+07
 -1       190-6.21294E+07-4.85596E+07-3.26560E+08 5.54368E+05-6.12331E+06-5.70569E+07
 -1       191 4.15704E+07 3.41505E+07 5.02151E+06 7.32476E+05-2.19879E+07-4.27381E+06
 -1       192 4.20245E+07 3.20898E+07 1.28843E+06-2.22276E+05-8.50605E+06 5.79690E+06
 -1       193 4.27036E+07 3.47788E+07 4.98302E+06-1.21104E+06 1.28965E+07-3.18607E+06
 -1       194 1.72577E+07 4.66871E+06 2.14171E+08-2.20210E+05-5.32803E+06-8.94084E+06
 -1       195-2.88259E+06 8.61903E+05 3.82683E+08 3.40852E+05-5.66631E+06-7.15228E+06
 -1       196-4.48246E+06 1.26519E+06 3.93036E+08 1.22063E+05-2.69299E+06-5.75553E+06
 -1       197-2.62994E+06 1.64426E+06 3.99661E+08-8.48387E+04 2.60701E+06-6.89952E+06
 -1       198-9.48654E+04 2.09088E+06 3.86143E+08-1.04242E+04 4.69884E+05-9.19910E+05
 -1       199 6.02801E+06 2.79877E+06 3.46838E+08 1.46619E+05 4.90647E+06 1.19177E+07
 -1       200 5.78912E+06 4.09853E+06 3.58142E+08-5.14367E+04 3.32924E+06 9.47262E+06
 -1       201 6.06365E+06 3.21829E+06 3.62000E+08-2.23386E+05-9.46502E+05 1.18397E+07
 -1       202 3.08494E+06 2.14763E+06 1.65265E+08-3.61448E+04 4.85719E+06 1.16696E+07
 -1       203-3.24200E+05-8.21714E+04-3.55672E+07-5.48038E+03 9.47744E+06 1.88737E+07
 -1       204-3.92971E+05-1.05522E+05-3.65108E+07 9.10858E+03 6.12631E+06 1.48866E+07
 -1       205-3.03280E+05-3.58734E+04-3.71530E+07 2.24160E+04-2.34913E+06 1.87065E+07
 -1       206-2.46222E+06-1.74171E+06-2.38562E+08 2.41797E+04 4.94416E+06 1.17072E+07
 -1       207-1.60035E+06-6.99902E+05-4.18446E+08-2.69934E+05 5.46000E+06 1.08792E+07
 -1       208-1.59131E+06-2.09284E+06-4.31732E+08 1.97745E+04 3.55124E+06 8.56075E+06
 -1       209-1.57810E+06-9.93014E+05-4.36888E+08 2.90409E+05-1.33035E+06 1.07814E+07
 -1       210-4.12964E+06-3.19974E+06-4.73810E+08 4.11345E+04 9.35666E+05 2.23191E+06
 -1       211-1.71350E+06-6.98569E+05-4.82444E+08-2.35993E+05-2.86317E+06-4.66956E+06
 -1       212-1.59842E+06-1.96151E+06-4.97266E+08 2.07683E+04-1.75173E+06-3.87254E+06
 -1       213-1.70401E+06-1.01501E+06-5.03784E+08 2.60549E+05 8.72639E+05-4.61157E+06
 -1       214-2.32514E+06-1.51240E+06-3.65617E+08 1.73222E+04-3.09422E+06-8.07662E+06
 -1       215-1.65603E+06 9.32589E+05-2.15887E+08-1.30879E+05-7.20623E+06-1.40663E+07
 -1       216-3.89992E+05 1.27878E+06-2.20014E+08-7.28615E+03-4.40121E+06-1.11879E+07
 -1       217-1.63805E+06 8.34998E+05-2.25667E+08 7.65895E+04 2.06275E+06-1.39329E+07
 -1       218 3.47017E+06 2.80491E+06-8.65081E+07-1.13692E+04-2.77130E+06-5.25702E+06
 -1       219-8.82894E-07 1.33179E-07-3.20561E-06 6.59376E-07-5.72186E+06-1.29590E+08
 -1       220 4.46107E+05 2.80408E+05-2.06632E+05-2.12472E+05-3.18750E+06-1.71413E+08
 -1       221 6.35074E+06 1.01035E+07-4.67985E+06-9.38140E+03-7.56850E+06-7.21913E+07
 -1       222-9.36911E-07-4.33065E-07-5.94556E-06 1.31968E-06-6.63096E+06-1.50179E+08
 -1       223-6.35074E+06-1.01035E+07 4.67985E+06 9.38140E+03-7.56850E+06-7.21913E+07
 -1       224-4.46107E+05-2.80408E+05 2.06632E+05 2.12472E+05-3.18750E+06-1.71413E+08
 -1       225-2.65893E-07-2.04565E-06-5.74905E-06 2.31666E-07-4.28423E+06-9.70302E+07
 -1       226 1.50804E+05 3.34511E+05 8.63183E+06-4.80244E+05-1.22491E+06-5.53599E+07
 -1       227 7.57608E+06 3.41544E+06 1.95496E+08-2.12045E+04-2.44434E+06-2.77419E+07
 -1       228 1.08860E-06-2.65977E-06-3.02913E-06-2.31597E-06-2.19568E+06-4.97283E+07
 -1       229-7.57608E+06-3.41544E+06-1.95496E+08 2.12045E+04-2.44434E+06-2.77419E+07
 -1       230-1.50804E+05-3.34511E+05-8.63183E+06 4.80244E+05-1.22491E+06-5.53599E+07
 -1       231-1.75694E-06 1.28224E-06-4.13787E-06-4.58735E-07 3.76147E+05 8.51906E+06
 -1       232 7.39352E+04 1.88720E+05 7.78191E+06-7.70960E+05 1.52052E+06 6.74015E+07
 -1       233 4.27417E+06 1.67450E+06 1.76246E+08-3.40406E+04 2.97602E+06 3.44371E+07
 -1       234-4.76034E-06 5.19678E-06-5.68590E-06 2.13279E-06 2.62280E+06 5.94016E+07
 -1       235-4.27417E+06-1.67450E+06-1.76246E+08 3.40406E+04 2.97602E+06 3.44371E+07
 -1       236-7.39352E+04-1.88720E+05-7.78191E+06 7.70960E+05 1.52052E+06 6.74015E+07
 -1       237-2.16570E-06 1.86398E-06-3.94695E-06 2.73329E-07 3.83888E+06 8.69437E+07
 -1       238 7.85109E+03 1.74586E+04-7.99243E+05 1.83173E+04 2.75013E+06 1.24217E+08
 -1       239 3.95406E+05 1.77813E+05-1.81014E+07 8.08776E+02 5.48463E+06 6.22855E+07
 -1       240-8.13045E-07-1.03959E-06-2.82261E-06-9.14239E-07 4.84295E+06 1.09684E+08
 -1       241-3.95406E+05-1.77813E+05 1.81014E+07-8.08776E+02 5.48463E+06 6.22855E+07
 -1       242-7.85109E+03-1.74586E+04 7.99243E+05-1.83173E+04 2.75013E+06 1.24217E+08
 -1       243-2.11212E-06-2.28494E-07-4.05964E-06-2.77651E-07 3.90738E+06 8.84952E+07
 -1       244-5.03514E+04-1.34451E+05-9.43404E+06 7.40997E+05 1.59545E+06 7.20684E+07
 -1       245-3.04507E+06-1.14037E+06-2.13664E+08 3.27177E+04 3.18208E+06 3.61341E+07
 -1       246-1.63639E-06 8.84655E-07-4.29526E-06-2.19312E-07 2.81292E+06 6.37075E+07
 -1       247 3.04507E+06 1.14037E+06 2.13664E+08-3.27177E+04 3.18208E+06 3.61341E+07
 -1       248 5.03514E+04 1.34451E+05 9.43404E+06-7.40997E+05 1.59545E+06 7.20684E+07
 -1       249-3.46382E-06-1.52225E-06-4.09316E-06 1.44704E-07 7.44564E+05 1.68630E+07
 -1       250-5.12686E+04-1.45265E+05-1.08857E+07 7.97476E+05-7.66655E+05-3.52639E+07
 -1       251-3.29000E+06-1.16114E+06-2.46541E+08 3.52114E+04-1.55703E+06-1.73634E+07
 -1       252-5.38712E-06-3.85829E-06-4.92251E-06 5.82630E-07-1.36232E+06-3.08542E+07
 -1       253 3.29000E+06 1.16114E+06 2.46541E+08-3.52114E+04-1.55703E+06-1.73634E+07
 -1       254 5.12686E+04 1.45265E+05 1.08857E+07-7.97476E+05-7.66655E+05-3.52639E+07
 -1       255-1.02015E-06 1.18164E-06-1.30851E-06 1.38526E-06-2.43946E+06-5.52493E+07
 -1       256 2.04806E+04-2.31841E+03-4.86791E+06-2.65871E+05-1.98572E+06-8.92187E+07
 -1       257-5.25079E+04 4.63849E+05-1.10250E+08-1.17391E+04-3.93933E+06-4.49729E+07
 -1       258 1.75240E-06 3.72063E-06 2.95695E-07 1.35459E-06-3.47745E+06-7.87580E+07
 -1       259 5.25079E+04-4.63849E+05 1.10250E+08 1.17391E+04-3.93933E+06-4.49729E+07
 -1       260-2.04806E+04 2.31841E+03 4.86791E+06 2.65871E+05-1.98572E+06-8.92187E+07
 -1       261 3.76732E-06-2.07394E-07 1.58162E-06-9.99615E-07-2.08622E+06-4.72492E+07
 -3
    1PSTEP                        17           1           2          
    1PGM                1.000000E+00                                  
    1PGK                3.075347E+12                                  
    1PHID                         -1                                  
    1PSUBC                         0                                  
    1PMODE                         9                                  
  100CL  110 2.79105E+05         261                     2   10MODAL      1
 -4  DISP        4    1
 -5  D1          1    2    1    0
 -5  D2          1    2    2    0
 -5  D3          1    2    3    0
 -5  ALL         1    2    0    0    1ALL
 -1         1 0.00000E+00 0.00000E+00 0.00000E+00
 -1         2 0.00000E+00 0.00000E+00 0.00000E+00
 -1         3 0.00000E+00 0.00000E+00 0.00000E+00
 -1         4 0.00000E+00 0.00000E+00 0.00000E+00
 -1         5-7.00953E+03 7.00953E+03 4.00178E-11
 -1         6-7.00953E+03-7.00953E+03-4.72937E-11
 -1         7 7.00953E+03-7.00953E+03 1.40517E-10
 -1         8 7.00953E+03 7.00953E+03 3.61979E-10
 -1         9 0.00000E+00 0.00000E+00 0.00000E+00
 -1        10 0.00000E+00 0.00000E+00 0.00000E+00
 -1        11 0.00000E+00 0.00000E+00 0.00000E+00
 -1        12 0.00000E+00 0.00000E+00 0.00000E+00
 -1        13 0.00000E+00 0.00000E+00 0.00000E+00
 -1        14 0.00000E+00 0.00000E+00 0.00000E+00
 -1        15 0.00000E+00 0.00000E+00 0.00000E+00
 -1        16 0.00000E+00 0.00000E+00 0.00000E+00
 -1        17 0.00000E+00 0.00000E+00 0.00000E+00
 -1        18 0.00000E+00 0.00000E+00 0.00000E+00
 -1        19 0.00000E+00 0.00000E+00 0.00000E+00
 -1        20 0.00000E+00 0.00000E+00 0.00000E+00
 -1        21-6.98196E+03 3.49843E+03 1.04763E+01
 -1        22-6.94891E+03-1.04592E-10 5.51381E-11
 -1        23-6.98196E+03-3.49843E+03-1.04763E+01
 -1        24-3.49843E+03-6.98196E+03 1.04763E+01
 -1        25 1.35969E-10-6.94891E+03 9.73159E-11
 -1        26 3.49843E+03-6.98196E+03-1.04763E+01
 -1        27 6.98196E+03-3.49843E+03 1.04763E+01
 -1        28 6.94891E+03-9.45874E-11 2.34650E-10
 -1        29 6.98196E+03 3.49843E+03-1.04763E+01
 -1        30 3.49843E+03 6.98196E+03 1.04763E+01
 -1        31 1.63141E-10 6.94891E+03 2.15095E-10
 -1        32-3.49843E+03 6.98196E+03-1.04763E+01
 -1        33 1.77402E+03 1.77402E+03 7.18501E-11
 -1        34 3.67336E+03 3.67336E+03 1.23691E-10
 -1        35 5.31195E+03 5.31195E+03 1.75532E-10
 -1        36 6.39878E+03 6.39878E+03 2.24418E-10
 -1        37 6.92553E+03 6.92553E+03 2.74213E-10
 -1        38 6.85687E+03 6.85687E+03 3.11729E-10
 -1        39 6.20507E+03 6.20507E+03 3.56067E-10
 -1        40 4.99849E+03 4.99849E+03 3.92902E-10
 -1        41 3.36306E+03 3.36306E+03 4.34966E-10
 -1        42 1.42987E+03 1.42987E+03 4.26525E-10
 -1        43-6.23849E+02-6.23849E+02 3.40492E-10
 -1        44-2.62703E+03-2.62703E+03 2.35104E-10
 -1        45-4.39784E+03-4.39784E+03 1.36424E-10
 -1        46-5.78872E+03-5.78872E+03 4.72937E-11
 -1        47-6.66217E+03-6.66217E+03-1.72804E-11
 -1        48-6.66217E+03 6.66217E+03 1.15961E-10
 -1        49-5.78872E+03 5.78872E+03 1.46267E-10
 -1        50-4.39784E+03 4.39784E+03 1.90042E-10
 -1        51-2.62703E+03 2.62703E+03 2.36469E-10
 -1        52-6.23849E+02 6.23849E+02 2.80124E-10
 -1        53 1.42987E+03-1.42987E+03 3.46972E-10
 -1        54 3.36306E+03-3.36306E+03 4.00746E-10
 -1        55 4.99849E+03-4.99849E+03 4.04214E-10
 -1        56 6.20507E+03-6.20507E+03 3.79032E-10
 -1        57 6.85687E+03-6.85687E+03 3.28583E-10
 -1        58 6.92553E+03-6.92553E+03 2.76174E-10
 -1        59 6.39878E+03-6.39878E+03 2.22542E-10
 -1        60 5.31195E+03-5.31195E+03 1.83718E-10
 -1        61 3.67336E+03-3.67336E+03 1.31450E-10
 -1        62 1.77402E+03-1.77402E+03 8.18545E-11
 -1        63-1.77402E+03 1.77402E+03 8.01492E-11
 -1        64-3.67336E+03 3.67336E+03 1.70644E-10
 -1        65-5.31195E+03 5.31195E+03 2.49514E-10
 -1        66-6.39878E+03 6.39878E+03 3.03771E-10
 -1        67-6.92553E+03 6.92553E+03 3.27418E-10
 -1        68-6.85687E+03 6.85687E+03 3.47200E-10
 -1        69-6.20507E+03 6.20507E+03 3.57318E-10
 -1        70-4.99849E+03 4.99849E+03 3.25372E-10
 -1        71-3.36306E+03 3.36306E+03 2.98769E-10
 -1        72-1.42987E+03 1.42987E+03 2.86491E-10
 -1        73 6.23849E+02-6.23849E+02 2.91038E-10
 -1        74 2.62703E+03-2.62703E+03 2.65572E-10
 -1        75 4.39784E+03-4.39784E+03 2.27828E-10
 -1        76 5.78872E+03-5.78872E+03 1.93722E-10
 -1        77 6.66217E+03-6.66217E+03 1.94632E-10
 -1        78-1.77402E+03-1.77402E+03 7.25322E-11
 -1        79-3.67336E+03-3.67336E+03 1.62345E-10
 -1        80-5.31195E+03-5.31195E+03 2.34792E-10
 -1        81-6.39878E+03-6.39878E+03 3.06954E-10
 -1        82-6.92553E+03-6.92553E+03 3.66526E-10
 -1        83-6.85687E+03-6.85687E+03 3.78577E-10
 -1        84-6.20507E+03-6.20507E+03 3.44812E-10
 -1        85-4.99849E+03-4.99849E+03 3.19687E-10
 -1        86-3.36306E+03-3.36306E+03 2.66482E-10
 -1        87-1.42987E+03-1.42987E+03 2.31012E-10
 -1        88 6.23849E+02 6.23849E+02 2.29193E-10
 -1        89 2.62703E+03 2.62703E+03 2.61934E-10
 -1        90 4.39784E+03 4.39784E+03 2.95529E-10
 -1        91 5.78872E+03 5.78872E+03 3.08319E-10
 -1        92 6.66217E+03 6.66217E+03 3.15595E-10
 -1        93 0.00000E+00 0.00000E+00 0.00000E+00
 -1        94 0.00000E+00 0.00000E+00 0.00000E+00
 -1        95 0.00000E+00 0.00000E+00 0.00000E+00
 -1        96 0.00000E+00 0.00000E+00 0.00000E+00
 -1        97 0.00000E+00 0.00000E+00 0.00000E+00
 -1        98-3.47377E+03-1.61890E-10 1.02091E-10
 -1        99 1.42563E-10 3.47377E+03 1.60981E-10
 -1       100 1.37788E-10-1.28239E-10 1.19144E-10
 -1       101 1.50749E-10-3.47377E+03 1.07315E-10
 -1       102 3.47377E+03-1.64619E-10 1.66438E-10
 -1       103 1.85996E+03 4.45652E-11 7.69660E-11
 -1       104 3.67102E+03-1.84007E+03-3.51379E+02
 -1       105 3.67274E+03 4.13820E-11 1.40290E-10
 -1       106 3.67102E+03 1.84007E+03 3.51379E+02
 -1       107 5.25693E+03 2.13731E-11 1.82808E-10
 -1       108 6.38942E+03-3.19255E+03-1.07720E+02
 -1       109 6.37216E+03-5.45697E-12 2.34877E-10
 -1       110 6.38942E+03 3.19255E+03 1.07720E+02
 -1       111 6.89177E+03-6.16467E-11 2.76373E-10
 -1       112 6.84576E+03-3.42513E+03 5.17263E+01
 -1       113 6.83133E+03-1.15051E-10 3.27134E-10
 -1       114 6.84576E+03 3.42513E+03-5.17263E+01
 -1       115 6.16861E+03-1.21872E-10 3.72211E-10
 -1       116 4.99072E+03-2.49578E+03 2.23990E+02
 -1       117 4.97903E+03-8.68567E-11 3.92220E-10
 -1       118 4.99072E+03 2.49578E+03-2.23990E+02
 -1       119 3.34403E+03-2.84217E-11 4.01542E-10
 -1       120 1.42813E+03-7.13976E+02 3.12145E+02
 -1       121 1.42556E+03 6.25278E-11 3.77895E-10
 -1       122 1.42813E+03 7.13976E+02-3.12145E+02
 -1       123-6.21526E+02 1.31649E-10 3.24235E-10
 -1       124-2.62059E+03 1.31152E+03 2.96511E+02
 -1       125-2.61234E+03 1.86390E-10 2.34422E-10
 -1       126-2.62059E+03-1.31152E+03-2.96511E+02
 -1       127-4.37502E+03 1.23691E-10 1.72122E-10
 -1       128-5.77434E+03 2.89129E+03 1.75750E+02
 -1       129-5.75621E+03 4.49063E-11 9.41327E-11
 -1       130-5.77434E+03-2.89129E+03-1.75750E+02
 -1       131-6.63564E+03-1.95541E-11 3.00133E-11
 -1       132-3.21450E-11 1.85996E+03 7.48059E-11
 -1       133 1.84007E+03 3.67102E+03-3.51379E+02
 -1       134-1.90994E-11 3.67274E+03 1.51431E-10
 -1       135-1.84007E+03 3.67102E+03 3.51379E+02
 -1       136-2.00089E-11 5.25693E+03 2.14641E-10
 -1       137 3.19255E+03 6.38942E+03-1.07720E+02
 -1       138-1.04592E-11 6.37216E+03 2.61480E-10
 -1       139-3.19255E+03 6.38942E+03 1.07720E+02
 -1       140-2.21689E-11 6.89177E+03 3.07864E-10
 -1       141 3.42513E+03 6.84576E+03 5.17263E+01
 -1       142 1.75078E-11 6.83133E+03 3.45949E-10
 -1       143-3.42513E+03 6.84576E+03-5.17263E+01
 -1       144 5.40012E-11 6.16861E+03 3.56621E-10
 -1       145 2.49578E+03 4.99072E+03 2.23990E+02
 -1       146 9.33476E-11 4.97903E+03 3.63571E-10
 -1       147-2.49578E+03 4.99072E+03-2.23990E+02
 -1       148 8.63452E-11 3.34403E+03 3.60188E-10
 -1       149 7.13976E+02 1.42813E+03 3.12145E+02
 -1       150 7.85576E-11 1.42556E+03 3.51065E-10
 -1       151-7.13976E+02 1.42813E+03-3.12145E+02
 -1       152 4.36273E-11-6.21526E+02 3.19460E-10
 -1       153-1.31152E+03-2.62059E+03 2.96511E+02
 -1       154 4.32010E-11-2.61234E+03 2.51475E-10
 -1       155 1.31152E+03-2.62059E+03-2.96511E+02
 -1       156 5.68434E-11-4.37502E+03 1.78261E-10
 -1       157-2.89129E+03-5.77434E+03 1.75750E+02
 -1       158 9.95897E-11-5.75621E+03 1.22782E-10
 -1       159 2.89129E+03-5.77434E+03-1.75750E+02
 -1       160 1.22100E-10-6.63564E+03 9.23137E-11
 -1       161-1.85996E+03-4.37694E-12 8.18545E-11
 -1       162-3.67102E+03 1.84007E+03-3.51379E+02
 -1       163-3.67274E+03 1.22782E-11 1.73713E-10
 -1       164-3.67102E+03-1.84007E+03 3.51379E+02
 -1       165-5.25693E+03-3.27418E-11 2.42494E-10
 -1       166-6.38942E+03 3.19255E+03-1.07720E+02
 -1       167-6.37216E+03-6.09361E-11 2.90129E-10
 -1       168-6.38942E+03-3.19255E+03 1.07720E+02
 -1       169-6.89177E+03-9.77707E-11 3.48791E-10
 -1       170-6.84576E+03 3.42513E+03 5.17263E+01
 -1       171-6.83133E+03-1.24771E-10 3.76303E-10
 -1       172-6.84576E+03-3.42513E+03-5.17263E+01
 -1       173-6.16861E+03-1.10504E-10 3.65389E-10
 -1       174-4.99072E+03 2.49578E+03 2.23990E+02
 -1       175-4.97903E+03-6.73026E-11 3.26509E-10
 -1       176-4.99072E+03-2.49578E+03-2.23990E+02
 -1       177-3.34403E+03-2.04636E-12 2.77396E-10
 -1       178-1.42813E+03 7.13976E+02 3.12145E+02
 -1       179-1.42556E+03 7.46923E-11 2.37605E-10
 -1       180-1.42813E+03-7.13976E+02-3.12145E+02
 -1       181 6.21526E+02 1.58280E-10 2.56932E-10
 -1       182 2.62059E+03-1.31152E+03 2.96511E+02
 -1       183 2.61234E+03 1.45519E-10 2.71029E-10
 -1       184 2.62059E+03 1.31152E+03-2.96511E+02
 -1       185 4.37502E+03 1.29148E-10 2.76714E-10
 -1       186 5.77434E+03-2.89129E+03 1.75750E+02
 -1       187 5.75621E+03 4.95675E-11 2.59661E-10
 -1       188 5.77434E+03 2.89129E+03-1.75750E+02
 -1       189 6.63564E+03 6.45741E-11 2.59206E-10
 -1       190 2.61480E-11-1.85996E+03 8.23093E-11
 -1       191-1.84007E+03-3.67102E+03-3.51379E+02
 -1       192 9.73444E-12-3.67274E+03 1.48134E-10
 -1       193 1.84007E+03-3.67102E+03 3.51379E+02
 -1       194-1.19371E-11-5.25693E+03 2.08843E-10
 -1       195-3.19255E+03-6.38942E+03-1.07720E+02
 -1       196-2.25100E-11-6.37216E+03 2.74781E-10
 -1       197 3.19255E+03-6.38942E+03 1.07720E+02
 -1       198-7.95808E-13-6.89177E+03 3.21052E-10
 -1       199-3.42513E+03-6.84576E+03 5.17263E+01
 -1       200 1.79625E-11-6.83133E+03 3.54419E-10
 -1       201 3.42513E+03-6.84576E+03-5.17263E+01
 -1       202 4.88853E-11-6.16861E+03 3.76986E-10
 -1       203-2.49578E+03-4.99072E+03 2.23990E+02
 -1       204 7.20775E-11-4.97903E+03 3.74939E-10
 -1       205 2.49578E+03-4.99072E+03-2.23990E+02
 -1       206 7.40101E-11-3.34403E+03 3.36740E-10
 -1       207-7.13976E+02-1.42813E+03 3.12145E+02
 -1       208 5.21254E-11-1.42556E+03 2.84899E-10
 -1       209 7.13976E+02-1.42813E+03-3.12145E+02
 -1       210 1.88720E-11 6.21526E+02 2.53522E-10
 -1       211 1.31152E+03 2.62059E+03 2.96511E+02
 -1       212-1.15961E-11 2.61234E+03 2.47837E-10
 -1       213-1.31152E+03 2.62059E+03-2.96511E+02
 -1       214-1.36424E-12 4.37502E+03 2.59206E-10
 -1       215 2.89129E+03 5.77434E+03 1.75750E+02
 -1       216 6.29257E-11 5.75621E+03 2.39993E-10
 -1       217-2.89129E+03 5.77434E+03-1.75750E+02
 -1       218 1.13424E-10 6.63564E+03 2.16460E-10
 -1       219-4.88143E-12 2.70433E-11 7.51470E-11
 -1       220 1.83701E+03 3.22871E-11 1.46201E-10
 -1       221 1.27898E-12-1.83701E+03 1.55637E-10
 -1       222-7.95808E-12 2.63753E-11 1.56149E-10
 -1       223-1.43245E-11 1.83701E+03 1.55126E-10
 -1       224-1.83701E+03 2.13731E-11 1.64391E-10
 -1       225-1.50067E-11 1.81899E-12 2.13959E-10
 -1       226 3.18484E+03-2.22826E-11 2.52157E-10
 -1       227-3.09228E-11-3.18484E+03 2.71598E-10
 -1       228-2.40163E-11-4.68390E-11 2.67164E-10
 -1       229-1.25056E-11 3.18484E+03 2.60570E-10
 -1       230-3.18484E+03-6.45741E-11 2.78760E-10
 -1       231-6.25278E-12-7.27596E-11 3.15822E-10
 -1       232 3.41516E+03-1.17552E-10 3.42482E-10
 -1       233 1.65983E-11-3.41516E+03 3.54994E-10
 -1       234 1.77920E-11-1.33014E-10 3.52031E-10
 -1       235 8.24230E-12 3.41516E+03 3.51889E-10
 -1       236-3.41516E+03-1.14142E-10 3.64935E-10
 -1       237 5.00222E-11-1.17780E-10 3.72211E-10
 -1       238 2.48887E+03-1.00044E-10 3.82215E-10
 -1       239 6.84395E-11-2.48887E+03 3.71074E-10
 -1       240 7.79892E-11-1.06866E-10 3.66299E-10
 -1       241 8.59757E-11 2.48887E+03 3.59705E-10
 -1       242-2.48887E+03-1.07320E-10 3.47029E-10
 -1       243 8.81641E-11-2.41016E-11 3.40037E-10
 -1       244 7.12783E+02 8.86757E-11 3.40378E-10
 -1       245 6.38920E-11-7.12783E+02 3.03771E-10
 -1       246 6.92353E-11 6.13909E-11 3.20640E-10
 -1       247 7.23901E-11 7.12783E+02 3.34126E-10
 -1       248-7.12783E+02 7.13953E-11 2.83080E-10
 -1       249 4.60432E-11 1.78261E-10 2.83137E-10
 -1       250-1.30623E+03 1.66438E-10 2.39552E-10
 -1       251 5.22959E-12 1.30623E+03 2.51248E-10
 -1       252 4.66116E-12 1.70985E-10 2.47155E-10
 -1       253 1.77351E-11-1.30623E+03 2.46700E-10
 -1       254 1.30623E+03 1.63709E-10 2.62844E-10
 -1       255 3.51861E-11 1.23691E-10 2.11458E-10
 -1       256-2.87686E+03 1.13801E-10 1.38243E-10
 -1       257 4.57447E-11 2.87686E+03 1.99634E-10
 -1       258 4.82032E-11 4.57021E-11 1.81331E-10
 -1       259 5.32054E-11-2.87686E+03 1.57797E-10
 -1       260 2.87686E+03 8.52651E-11 2.13504E-10
 -1       261 1.02716E-10-4.54747E-11 1.53477E-10
 -3
    1PSTEP                        18           1           2          
    1PGM                1.000000E+00                                  
    1PGK                3.075347E+12                                  
    1PHID                         -1                                  
    1PSUBC                         0                                  
    1PMODE                         9                                  
  100CL  110 2.79105E+05         261                     2   10MODAL      1
 -4  STRESS      6    1
 -5  SXX         1    4    1    1
 -5  SYY         1    4    2    2
 -5  SZZ         1    4    3    3
 -5  SXY         1    4    1    2
 -5  SYZ         1    4    2    3
 -5  SZX         1    4    3    1
 -1         1 1.85838E+07-1.85838E+07 4.83956E-05-2.02577E-06-2.76408E+08 2.76408E+08
 -1         2-1.85838E+07 1.85838E+07 3.69335E-05 1.08033E-07 2.76408E+08 2.76408E+08
 -1         3 1.85838E+07-1.85838E+07 4.01273E-05 3.41388E-06 2.76408E+08-2.76408E+08
 -1         4-1.85838E+07 1.85838E+07 3.13800E-05-6.52974E-07-2.76408E+08-2.76408E+08
 -1         5 1.02718E+07-1.02718E+07-3.82582E-06 5.30707E-06-1.99034E+06 1.99034E+06
 -1         6-1.02718E+07 1.02718E+07-7.12834E-06 8.76107E-06 1.99034E+06 1.99034E+06
 -1         7 1.02718E+07-1.02718E+07-3.59227E-05 4.69005E-06 1.99034E+06-1.99034E+06
 -1         8-1.02718E+07 1.02718E+07-6.70422E-05 9.88471E-06-1.99034E+06-1.99034E+06
 -1         9 1.13928E+07-1.64865E+07-2.60848E+07-4.64581E+06-1.38290E+08 2.90266E+08
 -1        10 6.85966E-06 1.10501E-05 4.06690E-05-9.29163E+06 9.99309E-06 3.04124E+08
 -1        11-1.13928E+07 1.64865E+07 2.60848E+07-4.64581E+06 1.38290E+08 2.90266E+08
 -1        12-1.64865E+07 1.13928E+07-2.60848E+07 4.64581E+06 2.90266E+08 1.38290E+08
 -1        13 9.50973E-06 1.26846E-05 3.77782E-05 9.29163E+06 3.04124E+08-8.63802E-06
 -1        14 1.64865E+07-1.13928E+07 2.60848E+07 4.64581E+06 2.90266E+08-1.38290E+08
 -1        15 1.13928E+07-1.64865E+07-2.60848E+07-4.64581E+06 1.38290E+08-2.90266E+08
 -1        16 9.23499E-06 6.79307E-06 3.66569E-05-9.29163E+06-2.72039E-06-3.04124E+08
 -1        17-1.13928E+07 1.64865E+07 2.60848E+07-4.64581E+06-1.38290E+08-2.90266E+08
 -1        18-1.64865E+07 1.13928E+07-2.60848E+07 4.64581E+06-2.90266E+08-1.38290E+08
 -1        19 1.07260E-05 1.15219E-05 4.50462E-05 9.29163E+06-3.04124E+08 6.29853E-06
 -1        20 1.64865E+07-1.13928E+07 2.60848E+07 4.64581E+06-2.90266E+08 1.38290E+08
 -1        21 1.10425E+07-5.88151E+06-9.93226E+06-1.40209E+06-1.62029E+06-3.44395E+06
 -1        22-3.33413E-05-1.15867E-04-1.53147E-05-2.80418E+06 3.31388E-06-8.87824E+06
 -1        23-1.10425E+07 5.88151E+06 9.93226E+06-1.40209E+06 1.62029E+06-3.44395E+06
 -1        24-5.88151E+06 1.10425E+07-9.93226E+06 1.40209E+06-3.44395E+06 1.62029E+06
 -1        25-3.60748E-06 4.45321E-05 2.31378E-05 2.80418E+06-8.87824E+06 3.53740E-06
 -1        26 5.88151E+06-1.10425E+07 9.93226E+06 1.40209E+06-3.44395E+06-1.62029E+06
 -1        27 1.10425E+07-5.88151E+06-9.93226E+06-1.40209E+06 1.62029E+06 3.44395E+06
 -1        28 9.40356E-05 1.83770E-04 6.92289E-05-2.80418E+06-1.45694E-05 8.87824E+06
 -1        29-1.10425E+07 5.88151E+06 9.93226E+06-1.40209E+06-1.62029E+06 3.44395E+06
 -1        30-5.88151E+06 1.10425E+07-9.93226E+06 1.40209E+06 3.44395E+06-1.62029E+06
 -1        31 1.10145E-05 6.49281E-05 2.66936E-05 2.80418E+06 8.87824E+06-5.62612E-06
 -1        32 5.88151E+06-1.10425E+07 9.93226E+06 1.40209E+06 3.44395E+06 1.62029E+06
 -1        33-1.68575E+07 1.68575E+07 2.42577E-05 3.16417E-07 1.64757E+08 1.64757E+08
 -1        34-1.39597E+06 1.39597E+06 2.01545E-05-6.89033E-07 4.89175E+07 4.89175E+07
 -1        35 1.17762E+07-1.17762E+07 2.44796E-05 9.03296E-07 4.73183E+07 4.73183E+07
 -1        36 7.59276E+06-7.59276E+06 2.47199E-05 2.12851E-07 5.10828E+07 5.10828E+07
 -1        37 5.55754E+06-5.55754E+06 2.71781E-05-7.47226E-07 1.60174E+07 1.60174E+07
 -1        38 7.84085E+06-7.84085E+06 3.05392E-05 9.92732E-07-2.09021E+07-2.09021E+07
 -1        39 7.34056E+06-7.34056E+06 1.78681E-05 5.46087E-06-4.64811E+07-4.64811E+07
 -1        40 5.42816E+06-5.42816E+06 1.12386E-05 7.93637E-06-7.15378E+07-7.15378E+07
 -1        41 3.45823E+06-3.45823E+06-3.75567E-06 7.08861E-06-8.66921E+07-8.66921E+07
 -1        42 1.76143E+06-1.76143E+06-4.23994E-05 1.11049E-05-1.01419E+08-1.01419E+08
 -1        43-6.70790E+05 6.70790E+05-5.25216E-05 1.01278E-05-9.87895E+07-9.87895E+07
 -1        44-3.05671E+06 3.05671E+06-4.69014E-05 7.16512E-06-9.54551E+07-9.54551E+07
 -1        45-4.91068E+06 4.91068E+06-6.10541E-05-1.03243E-05-7.76169E+07-7.76169E+07
 -1        46-5.35022E+06 5.35022E+06-7.59300E-05-2.58480E-05-5.84984E+07-5.84984E+07
 -1        47-7.30110E+06 7.30110E+06-4.01281E-05-7.51595E-06-2.71255E+07-2.71255E+07
 -1        48 7.30110E+06-7.30110E+06-4.53972E-05 1.42714E-05 2.71255E+07-2.71255E+07
 -1        49 5.35022E+06-5.35022E+06-9.96778E-05 2.28354E-05 5.84984E+07-5.84984E+07
 -1        50 4.91068E+06-4.91068E+06-3.51911E-05-8.14271E-06 7.76169E+07-7.76169E+07
 -1        51 3.05671E+06-3.05671E+06 3.91582E-05-3.53457E-05 9.54551E+07-9.54551E+07
 -1        52 6.70790E+05-6.70790E+05-8.14199E-06-1.88261E-05 9.87895E+07-9.87895E+07
 -1        53-1.76143E+06 1.76143E+06-5.12111E-05-3.91129E-07 1.01419E+08-1.01419E+08
 -1        54-3.45823E+06 3.45823E+06-9.53396E-07 1.65801E-06 8.66921E+07-8.66921E+07
 -1        55-5.42816E+06 5.42816E+06 4.72095E-05 1.06554E-06 7.15378E+07-7.15378E+07
 -1        56-7.34056E+06 7.34056E+06 4.18275E-05-1.15042E-06 4.64811E+07-4.64811E+07
 -1        57-7.84085E+06 7.84085E+06 3.29486E-05-6.45133E-06 2.09021E+07-2.09021E+07
 -1        58-5.55754E+06 5.55754E+06 2.99987E-05-1.21886E-06-1.60174E+07 1.60174E+07
 -1        59-7.59276E+06 7.59276E+06 2.12677E-05 2.95174E-06-5.10828E+07 5.10828E+07
 -1        60-1.17762E+07 1.17762E+07 1.99020E-05 5.85830E-07-4.73183E+07 4.73183E+07
 -1        61 1.39597E+06-1.39597E+06 1.99241E-05 6.14587E-07-4.89175E+07 4.89175E+07
 -1        62 1.68575E+07-1.68575E+07 2.98595E-05-2.57445E-07-1.64757E+08 1.64757E+08
 -1        63 1.68575E+07-1.68575E+07 3.60872E-05-1.52129E-06 1.64757E+08-1.64757E+08
 -1        64 1.39597E+06-1.39597E+06 3.30168E-05-4.57407E-06 4.89175E+07-4.89175E+07
 -1        65-1.17762E+07 1.17762E+07 3.39732E-05 2.19184E-07 4.73183E+07-4.73183E+07
 -1        66-7.59276E+06 7.59276E+06 2.78960E-05-2.16482E-07 5.10828E+07-5.10828E+07
 -1        67-5.55754E+06 5.55754E+06 1.66439E-05-1.17642E-07 1.60174E+07-1.60174E+07
 -1        68-7.84085E+06 7.84085E+06 1.94236E-05 4.85239E-06-2.09021E+07 2.09021E+07
 -1        69-7.34056E+06 7.34056E+06 6.54472E-06 3.21790E-06-4.64811E+07 4.64811E+07
 -1        70-5.42816E+06 5.42816E+06-9.30702E-06 3.32906E-06-7.15378E+07 7.15378E+07
 -1        71-3.45823E+06 3.45823E+06 1.04455E-05-1.02277E-05-8.66921E+07 8.66921E+07
 -1        72-1.76143E+06 1.76143E+06 3.17387E-05-2.43707E-05-1.01419E+08 1.01419E+08
 -1        73 6.70790E+05-6.70790E+05 2.26797E-05-1.38755E-05-9.87895E+07 9.87895E+07
 -1        74 3.05671E+06-3.05671E+06 3.10607E-06-6.91005E-06-9.54551E+07 9.54551E+07
 -1        75 4.91068E+06-4.91068E+06-4.13390E-05 2.18285E-05-7.76169E+07 7.76169E+07
 -1        76 5.35022E+06-5.35022E+06-6.85233E-05 4.81769E-05-5.84984E+07 5.84984E+07
 -1        77 7.30110E+06-7.30110E+06-4.55819E-05 2.48156E-05-2.71255E+07 2.71255E+07
 -1        78-1.68575E+07 1.68575E+07 3.37856E-05-5.67001E-07-1.64757E+08-1.64757E+08
 -1        79-1.39597E+06 1.39597E+06 3.26056E-05-4.14439E-07-4.89175E+07-4.89175E+07
 -1        80 1.17762E+07-1.17762E+07 3.02913E-05 9.05013E-07-4.73183E+07-4.73183E+07
 -1        81 7.59276E+06-7.59276E+06 3.16498E-05-1.09510E-06-5.10828E+07-5.10828E+07
 -1        82 5.55754E+06-5.55754E+06 2.01024E-05-5.21395E-08-1.60174E+07-1.60174E+07
 -1        83 7.84085E+06-7.84085E+06 3.67174E-06 3.97256E-06 2.09021E+07 2.09021E+07
 -1        84 7.34056E+06-7.34056E+06-1.46809E-05 3.18134E-06 4.64811E+07 4.64811E+07
 -1        85 5.42816E+06-5.42816E+06-4.02073E-05 3.70611E-06 7.15378E+07 7.15378E+07
 -1        86 3.45823E+06-3.45823E+06-3.85840E-05-1.51058E-05 8.66921E+07 8.66921E+07
 -1        87 1.76143E+06-1.76143E+06-1.97824E-05-3.49460E-05 1.01419E+08 1.01419E+08
 -1        88-6.70790E+05 6.70790E+05 1.55900E-05-2.05248E-05 9.87895E+07 9.87895E+07
 -1        89-3.05671E+06 3.05671E+06 4.18262E-05-6.10079E-06 9.54551E+07 9.54551E+07
 -1        90-4.91068E+06 4.91068E+06 4.34851E-05-1.99380E-06 7.76169E+07 7.76169E+07
 -1        91-5.35022E+06 5.35022E+06 5.06407E-05-2.84245E-06 5.84984E+07 5.84984E+07
 -1        92-7.30110E+06 7.30110E+06-7.41612E-06 1.05292E-06 2.71255E+07 2.71255E+07
 -1        93 7.07782E-06 1.04350E-05 3.80762E-05-4.64581E+06 7.76444E-06 1.52075E+08
 -1        94 8.72929E-06 9.43569E-06 3.99426E-05 4.64581E+06-1.52075E+08 2.05031E-06
 -1        95 6.39699E-06 7.11455E-06 3.45100E-05 4.18503E-07 6.02158E-06-1.43843E-06
 -1        96 7.78539E-06 9.78215E-06 3.59789E-05 4.64581E+06 1.52075E+08-4.65848E-06
 -1        97 7.36653E-06 5.60097E-06 3.50960E-05-4.64581E+06 1.89350E-06-1.52075E+08
 -1        98 1.13104E-05-1.76605E-05 5.90179E-06-1.40209E+06-4.64998E-06-3.87255E+06
 -1        99 9.08284E-06 3.42121E-05 7.79796E-06 1.40209E+06 3.87255E+06-2.81492E-06
 -1       100 1.67681E-05 6.79912E-06-8.04311E-06-1.08053E-05-8.20955E-06 2.72959E-06
 -1       101 1.13887E-05 2.73171E-05 9.07481E-06 1.40209E+06-3.87255E+06 4.50015E-06
 -1       102 3.58047E-05 5.84109E-05 1.30124E-05-1.40209E+06-9.18738E-06 3.87255E+06
 -1       103-1.67033E-06 1.51899E-06 2.95192E-05-7.93190E+06 2.84798E-06 3.91135E+08
 -1       104 4.58141E+06 1.50492E+05-2.34102E+06 1.47933E+05-5.48568E+06 2.64719E+08
 -1       105-4.39351E-06-5.45615E-06 1.68160E-05 2.95865E+05-2.40281E-06 4.80521E+08
 -1       106-4.58141E+06-1.50492E+05 2.34102E+06 1.47933E+05 5.48568E+06 2.64719E+08
 -1       107 1.35787E-06-6.25849E-07 1.98632E-05 5.35479E+06 8.88482E-07 3.41701E+08
 -1       108-1.16918E+07 4.19285E+06 1.18306E+07 8.67848E+05-1.96624E+07 1.22832E+08
 -1       109 3.23355E-06 6.25529E-07 2.10162E-05 1.73570E+06 5.64381E-07 1.94581E+08
 -1       110 1.16918E+07-4.19285E+06-1.18306E+07 8.67848E+05 1.96624E+07 1.22832E+08
 -1       111-2.36556E-07 5.27350E-06 2.15434E-05 1.20891E+06-8.74745E-07 5.20673E+07
 -1       112-8.08363E+06 5.52288E+06 1.08173E+07 1.42002E+06 7.62566E+06-5.46651E+07
 -1       113-5.25592E-06 9.99530E-06 2.54326E-05 2.84004E+06-4.93601E-07-8.84282E+07
 -1       114 8.08363E+06-5.52288E+06-1.08173E+07 1.42002E+06-7.62566E+06-5.46651E+07
 -1       115 3.53111E-06 8.93581E-06 1.73729E-05 2.57949E+06 1.88313E-06-2.23764E+08
 -1       116-6.86194E+06 3.50420E+06 8.08578E+06 8.10228E+05 2.36997E+07-2.15019E+08
 -1       117 5.82682E-06 4.55236E-06 9.54326E-06 1.62046E+06 4.10900E-06-3.58501E+08
 -1       118 6.86194E+06-3.50420E+06-8.08578E+06 8.10228E+05-2.36997E+07-2.15019E+08
 -1       119-1.47894E-06 2.79951E-05 3.87058E-06 1.05518E+06 2.38977E-06-4.31278E+08
 -1       120-1.94679E+06 1.10463E+06 2.27120E+06 3.02503E+05 3.38607E+07-3.01700E+08
 -1       121-7.09668E-07 6.19739E-05 2.44426E-06 6.05007E+05-3.93391E-06-5.01982E+08
 -1       122 1.94679E+06-1.10463E+06-2.27120E+06 3.02503E+05-3.38607E+07-3.01700E+08
 -1       123 6.47898E-06 2.71844E-05-1.89841E-05-1.84001E+05-3.02680E-06-4.89952E+08
 -1       124 3.42223E+06-1.98524E+06-4.34602E+06-4.53888E+05 3.17358E+07-2.85600E+08
 -1       125 1.20713E-05-1.90276E-05-3.52366E-05-9.07776E+05 4.83356E-07-4.75746E+08
 -1       126-3.42223E+06 1.98524E+06 4.34602E+06-4.53888E+05-3.17358E+07-2.85600E+08
 -1       127 9.90462E-06 4.27763E-05-1.29193E-05-1.75510E+06 2.30037E-06-3.80984E+08
 -1       128 6.89661E+06-3.82283E+06-9.08445E+06-9.43270E+05 1.97764E+07-1.71873E+08
 -1       129 1.02594E-05 1.07315E-04-5.02821E-06-1.88654E+06 4.35952E-06-2.85248E+08
 -1       130-6.89661E+06 3.82283E+06 9.08445E+06-9.43270E+05-1.97764E+07-1.71873E+08
 -1       131-1.00955E-05-5.48805E-06-1.26008E-05-2.07252E+06 2.93273E-06-1.46104E+08
 -1       132 2.54065E-06 9.08040E-07 3.26484E-05 7.93190E+06 3.91135E+08-2.27988E-06
 -1       133 1.50492E+05 4.58141E+06-2.34102E+06-1.47933E+05 2.64719E+08 5.48568E+06
 -1       134 1.39698E-07-5.00749E-06 2.92137E-05-2.95865E+05 4.80521E+08 1.03004E-06
 -1       135-1.50492E+05-4.58141E+06 2.34102E+06-1.47933E+05 2.64719E+08-5.48568E+06
 -1       136 2.22214E-06-5.35371E-06 2.13124E-05-5.35479E+06 3.41701E+08 9.81614E-07
 -1       137 4.19285E+06-1.16918E+07 1.18306E+07-8.67848E+05 1.22832E+08 1.96624E+07
 -1       138-1.48709E-06-1.02357E-05 1.48816E-05-1.73570E+06 1.94581E+08-1.92830E-06
 -1       139-4.19285E+06 1.16918E+07-1.18306E+07-8.67848E+05 1.22832E+08-1.96624E+07
 -1       140-7.11181E-07-1.96090E-05 1.22897E-05-1.20891E+06 5.20673E+07-1.94204E-06
 -1       141 5.52288E+06-8.08363E+06 1.08173E+07-1.42002E+06-5.46651E+07-7.62566E+06
 -1       142 3.57220E-06-2.60291E-05 2.70922E-06-2.84004E+06-8.84282E+07 1.20117E-06
 -1       143-5.52288E+06 8.08363E+06-1.08173E+07-1.42002E+06-5.46651E+07 7.62566E+06
 -1       144 3.42494E-06-1.32518E-05-3.11062E-07-2.57949E+06-2.23764E+08 1.82167E-06
 -1       145 3.50420E+06-6.86194E+06 8.08578E+06-8.10228E+05-2.15019E+08-2.36997E+07
 -1       146 6.26082E-07-2.37161E-06 1.33738E-06-1.62046E+06-3.58501E+08 2.96533E-06
 -1       147-3.50420E+06 6.86194E+06-8.08578E+06-8.10228E+05-2.15019E+08 2.36997E+07
 -1       148 2.76510E-06 4.35859E-06 2.39629E-06-1.05518E+06-4.31278E+08 3.12366E-06
 -1       149 1.10463E+06-1.94679E+06 2.27120E+06-3.02503E+05-3.01700E+08-3.38607E+07
 -1       150 4.17861E-06 8.00774E-06 1.27568E-06-6.05007E+05-5.01982E+08 2.05636E-06
 -1       151-1.10463E+06 1.94679E+06-2.27120E+06-3.02503E+05-3.01700E+08 3.38607E+07
 -1       152 4.64974E-06 1.09873E-06-1.64794E-05 1.84001E+05-4.89952E+08 3.06219E-06
 -1       153-1.98524E+06 3.42223E+06-4.34602E+06 4.53888E+05-2.85600E+08-3.17358E+07
 -1       154 1.06762E-05 1.09553E-06-2.90908E-05 9.07776E+05-4.75746E+08 4.41354E-06
 -1       155 1.98524E+06-3.42223E+06 4.34602E+06 4.53888E+05-2.85600E+08 3.17358E+07
 -1       156 5.46151E-05 5.34356E-05 7.56327E-06 1.75510E+06-3.80984E+08-1.15484E-07
 -1       157-3.82283E+06 6.89661E+06-9.08445E+06 9.43270E+05-1.71873E+08-1.97764E+07
 -1       158 9.55006E-05 9.38799E-05 3.92916E-05 1.88654E+06-2.85248E+08-3.33786E-06
 -1       159 3.82283E+06-6.89661E+06 9.08445E+06 9.43270E+05-1.71873E+08 1.97764E+07
 -1       160 4.66511E-05 6.63614E-05 3.06517E-05 2.07252E+06-1.46104E+08-7.99075E-07
 -1       161 3.98047E-06 5.26197E-07 3.75137E-05-7.93190E+06 1.90735E-06-3.91135E+08
 -1       162 4.58141E+06 1.50492E+05-2.34102E+06 1.47933E+05 5.48568E+06-2.64719E+08
 -1       163 5.72996E-07-6.08759E-06 3.55188E-05 2.95865E+05 5.58794E-08-4.80521E+08
 -1       164-4.58141E+06-1.50492E+05 2.34102E+06 1.47933E+05-5.48568E+06-2.64719E+08
 -1       165-1.11153E-06 2.51457E-08 2.45981E-05 5.35479E+06-3.33227E-06-3.41701E+08
 -1       166-1.16918E+07 4.19285E+06 1.18306E+07 8.67848E+05 1.96624E+07-1.22832E+08
 -1       167-7.41845E-06 6.13095E-06 2.30968E-05 1.73570E+06-3.35276E-07-1.94581E+08
 -1       168 1.16918E+07-4.19285E+06-1.18306E+07 8.67848E+05-1.96624E+07-1.22832E+08
 -1       169-4.70039E-06-8.94151E-06 1.37817E-05 1.20891E+06 1.15763E-06-5.20673E+07
 -1       170-8.08363E+06 5.52288E+06 1.08173E+07 1.42002E+06-7.62566E+06 5.46651E+07
 -1       171 1.38488E-06-2.44169E-05-3.48967E-06 2.84004E+06 1.52783E-06 8.84282E+07
 -1       172 8.08363E+06-5.52288E+06-1.08173E+07 1.42002E+06 7.62566E+06 5.46651E+07
 -1       173-1.60187E-06 6.86268E-06-8.11182E-06 2.57949E+06 6.40750E-07 2.23764E+08
 -1       174-6.86194E+06 3.50420E+06 8.08578E+06 8.10228E+05-2.36997E+07 2.15019E+08
 -1       175-8.31159E-06 3.77484E-05-1.35186E-05 1.62046E+06 1.88779E-06 3.58501E+08
 -1       176 6.86194E+06-3.50420E+06-8.08578E+06 8.10228E+05 2.36997E+07 2.15019E+08
 -1       177-1.59424E-05 6.93870E-06-2.21273E-05 1.05518E+06 3.81842E-07 4.31278E+08
 -1       178-1.94679E+06 1.10463E+06 2.27120E+06 3.02503E+05-3.38607E+07 3.01700E+08
 -1       179-1.37391E-05-1.72014E-05-1.22436E-05 6.05007E+05 2.02656E-06 5.01982E+08
 -1       180 1.94679E+06-1.10463E+06-2.27120E+06 3.02503E+05 3.38607E+07 3.01700E+08
 -1       181 7.05454E-06-1.17266E-05 6.05593E-06-1.84001E+05 3.35276E-08 4.89952E+08
 -1       182 3.42223E+06-1.98524E+06-4.34602E+06-4.53888E+05-3.17358E+07 2.85600E+08
 -1       183 2.09057E-05-5.83986E-06 9.14838E-06-9.07776E+05 5.18747E-07 4.75746E+08
 -1       184-3.42223E+06 1.98524E+06 4.34602E+06-4.53888E+05 3.17358E+07 2.85600E+08
 -1       185-3.43379E-05-5.91250E-05-3.35528E-05-1.75510E+06 3.15346E-06 3.80984E+08
 -1       186 6.89661E+06-3.82283E+06-9.08445E+06-9.43270E+05-1.97764E+07 1.71873E+08
 -1       187-7.52243E-05-9.38382E-05-5.52693E-05-1.88654E+06 1.58930E-05 2.85248E+08
 -1       188-6.89661E+06 3.82283E+06 9.08445E+06-9.43270E+05 1.97764E+07 1.71873E+08
 -1       189 1.64649E-05 5.72165E-05 1.80248E-05-2.07252E+06 8.99192E-06 1.46104E+08
 -1       190 4.25614E-06 8.76887E-06 3.56957E-05 7.93190E+06-3.91135E+08 7.69272E-07
 -1       191 1.50492E+05 4.58141E+06-2.34102E+06-1.47933E+05-2.64719E+08-5.48568E+06
 -1       192 3.77838E-06 9.30135E-06 2.87630E-05-2.95865E+05-4.80521E+08-2.87965E-06
 -1       193-1.50492E+05-4.58141E+06 2.34102E+06-1.47933E+05-2.64719E+08 5.48568E+06
 -1       194 2.94205E-06 7.41472E-06 2.98433E-05-5.35479E+06-3.41701E+08-2.09361E-06
 -1       195 4.19285E+06-1.16918E+07 1.18306E+07-8.67848E+05-1.22832E+08-1.96624E+07
 -1       196-5.49768E-06 2.49408E-06 2.50507E-05-1.73570E+06-1.94581E+08-8.62870E-07
 -1       197-4.19285E+06 1.16918E+07-1.18306E+07-8.67848E+05-1.22832E+08 1.96624E+07
 -1       198-7.02497E-06-9.43989E-06 1.21668E-05-1.20891E+06-5.20673E+07 1.36835E-06
 -1       199 5.52288E+06-8.08363E+06 1.08173E+07-1.42002E+06 5.46651E+07 7.62566E+06
 -1       200-5.06290E-06-2.03415E-05 5.11296E-06-2.84004E+06 8.84282E+07 2.60514E-06
 -1       201-5.52288E+06 8.08363E+06-1.08173E+07-1.42002E+06 5.46651E+07-7.62566E+06
 -1       202-9.48552E-06-8.49133E-06-2.14204E-06-2.57949E+06 2.23764E+08 2.01724E-06
 -1       203 3.50420E+06-6.86194E+06 8.08578E+06-8.10228E+05 2.15019E+08 2.36997E+07
 -1       204-1.52864E-05 1.78721E-06-1.52378E-05-1.62046E+06 3.58501E+08-9.62056E-07
 -1       205-3.50420E+06 6.86194E+06-8.08578E+06-8.10228E+05 2.15019E+08-2.36997E+07
 -1       206-5.93252E-07 1.08024E-05-1.78646E-05-1.05518E+06 4.31278E+08-8.25152E-07
 -1       207 1.10463E+06-1.94679E+06 2.27120E+06-3.02503E+05 3.01700E+08 3.38607E+07
 -1       208 1.53744E-05 2.12835E-05-1.28660E-05-6.05007E+05 5.01982E+08 6.09085E-07
 -1       209-1.10463E+06 1.94679E+06-2.27120E+06-3.02503E+05 3.01700E+08-3.38607E+07
 -1       210 2.78698E-07-3.98771E-05-2.18670E-05 1.84001E+05 4.89952E+08 1.11200E-06
 -1       211-1.98524E+06 3.42223E+06-4.34602E+06 4.53888E+05 2.85600E+08 3.17358E+07
 -1       212-1.02168E-05-9.59579E-05-2.83038E-05 9.07776E+05 4.75746E+08 1.35042E-07
 -1       213 1.98524E+06-3.42223E+06 4.34602E+06 4.53888E+05 2.85600E+08-3.17358E+07
 -1       214 3.35113E-06-2.05962E-06-5.48922E-06 1.75510E+06 3.80984E+08-1.32620E-06
 -1       215-3.82283E+06 6.89661E+06-9.08445E+06 9.43270E+05 1.71873E+08 1.97764E+07
 -1       216 7.27735E-06 8.83902E-05 1.14413E-05 1.88654E+06 2.85248E+08-3.05008E-06
 -1       217 3.82283E+06-6.89661E+06 9.08445E+06 9.43270E+05 1.71873E+08-1.97764E+07
 -1       218 7.51182E-06 7.80644E-05 1.94889E-05 2.07252E+06 1.46104E+08-5.09154E-06
 -1       219 2.87952E-06 5.11759E-06 3.52742E-05 3.75744E-07 2.91504E-06-1.63168E-06
 -1       220-1.44017E-06 3.25963E-07 2.46288E-05 1.47933E+05-5.53206E-07 2.21362E+08
 -1       221 2.47755E-06 5.67408E-06 3.00035E-05-1.47933E+05-2.21362E+08-2.89641E-06
 -1       222 7.51301E-07 2.25106E-06 3.09854E-05 7.25848E-08 5.73695E-07-1.64658E-06
 -1       223 2.32831E-07-1.27614E-06 2.99690E-05-1.47933E+05 2.21362E+08 3.24100E-07
 -1       224 2.81259E-07-3.84660E-06 3.25236E-05 1.47933E+05-4.65661E-08-2.21362E+08
 -1       225 9.14598E-06-6.20959E-06 2.38392E-05 1.38600E-06-1.93063E-06-3.38815E-06
 -1       226 9.41474E-06-4.06598E-06 2.27885E-05 8.67848E+05-8.84756E-08 9.14864E+07
 -1       227 4.56630E-06-6.21960E-06 2.36123E-05-8.67848E+05-9.14864E+07-1.79745E-06
 -1       228 1.37855E-05-1.57244E-05 2.17916E-05 1.18667E-06-5.63217E-07-3.54555E-06
 -1       229 5.72679E-06-1.33759E-05 1.81454E-05-8.67848E+05 9.14864E+07-3.14461E-06
 -1       230 2.27802E-06-8.28019E-06 2.10595E-05 8.67848E+05-3.60887E-07-9.14864E+07
 -1       231 3.79240E-06-4.65312E-06 1.82378E-05 6.81096E-07-1.81654E-06-4.45871E-08
 -1       232-7.20797E-06-4.62477E-06 1.51112E-05 1.42002E+06-1.40769E-06-4.14267E+07
 -1       233 6.01332E-06-1.71736E-06 1.43163E-05-1.42002E+06 4.14267E+07 1.73040E-06
 -1       234-1.54780E-06 8.23216E-06 1.52827E-05 2.46408E-06-1.21607E-06 1.58465E-06
 -1       235-8.30641E-06-1.32357E-05 4.87687E-06-1.42002E+06-4.14267E+07 1.75741E-06
 -1       236 3.72482E-06 5.64608E-06 1.11423E-05 1.42002E+06 7.08736E-07 4.14267E+07
 -1       237 2.40543E-07-4.02477E-07 2.28768E-06-1.91364E-06 1.97440E-07-3.39933E-08
 -1       238 6.25825E-06 6.61903E-06 1.47661E-06 8.10228E+05 2.16905E-06-1.67206E+08
 -1       239-3.74849E-06-3.57092E-06-1.30697E-05-8.10228E+05 1.67206E+08-5.49480E-07
 -1       240-9.50589E-07-1.12435E-05-1.43219E-05-6.03039E-06 1.29268E-06-1.54693E-06
 -1       241-4.53222E-06-7.96467E-06-8.20193E-06-8.10228E+05-1.67206E+08 4.65661E-09
 -1       242-8.45175E-06 3.28786E-06-1.77852E-05 8.10228E+05 2.12155E-06 1.67206E+08
 -1       243-7.58700E-06-1.88833E-05-1.77973E-05 1.17922E-06 7.12089E-06-1.41375E-06
 -1       244-1.28548E-05 8.38866E-06-1.50383E-05 3.02503E+05 5.26011E-06-2.34209E+08
 -1       245-1.16939E-07-5.12926E-06-1.90997E-05-3.02503E+05 2.34209E+08 6.07222E-07
 -1       246-1.52910E-05-2.46634E-05-2.31564E-05 9.06145E-06 1.23847E-05 6.67758E-07
 -1       247-5.39760E-06-4.88840E-06-9.85188E-06-3.02503E+05-2.34209E+08 1.39698E-06
 -1       248-9.66049E-06-1.06659E-05-1.30178E-05 3.02503E+05 6.16722E-06 2.34209E+08
 -1       249-9.98686E-06-5.76878E-06-1.94550E-05 7.73510E-06 4.14252E-06-2.12807E-06
 -1       250 8.26475E-06 5.92170E-06-1.97873E-05-4.53888E+05-2.47546E-06-2.21927E+08
 -1       251-7.68760E-06-4.09596E-05-2.09990E-05 4.53888E+05 2.21927E+08-1.74996E-06
 -1       252-2.30969E-06 1.20793E-05-1.27014E-05 3.80602E-06-3.05101E-06-1.86032E-06
 -1       253 5.60749E-06 5.60771E-06-2.04002E-05 4.53888E+05-2.21927E+08 2.16532E-06
 -1       254 5.91404E-06-6.27607E-06-5.95814E-06-4.53888E+05-7.54371E-08 2.21927E+08
 -1       255-1.37607E-05-2.03478E-05-2.50757E-05 3.68028E-06 9.35979E-07 2.24449E-07
 -1       256-3.38665E-05-3.44625E-05-4.56814E-05-9.43270E+05 1.50874E-06-1.33159E+08
 -1       257 2.91946E-06 3.11311E-05-4.17233E-06 9.43270E+05 1.33159E+08 1.51340E-06
 -1       258-2.32827E-05-4.36946E-05-3.11855E-05 5.89823E-06-4.59235E-06 4.06336E-06
 -1       259 2.51869E-05 1.63096E-05-1.64611E-06 9.43270E+05-1.33159E+08-6.43544E-07
 -1       260-2.18985E-05-2.49350E-06-1.56523E-05-9.43270E+05 4.02611E-06 1.33159E+08
 -1       261-1.98645E-06-1.46590E-05-1.73829E-05-1.85851E-06-7.83196E-06 6.78003E-06
 -3
    1PSTEP                        19           1           2          
    1PGM                1.000000E+00                                  
    1PGK                4.757120E+12                                  
    1PHID                         -1                                  
    1PSUBC                         0                                  
    1PMODE                        10                                  
  100CL  111 3.47130E+05         261                     2   11MODAL      1
 -4  DISP        4    1
 -5  D1          1    2    1    0
 -5  D2          1    2    2    0
 -5  D3          1    2    3    0
 -5  ALL         1    2    0    0    1ALL
 -1         1 0.00000E+00 0.00000E+00 0.00000E+00
 -1         2 0.00000E+00 0.00000E+00 0.00000E+00
 -1         3 0.00000E+00 0.00000E+00 0.00000E+00
 -1         4 0.00000E+00 0.00000E+00 0.00000E+00
 -1         5 4.87562E+02-6.82668E+03-3.96807E+03
 -1         6 4.61036E+02-6.82484E+03-4.56071E+03
 -1         7 4.87562E+02-6.82668E+03 3.96807E+03
 -1         8 4.61036E+02-6.82484E+03 4.56071E+03
 -1         9 0.00000E+00 0.00000E+00 0.00000E+00
 -1        10 0.00000E+00 0.00000E+00 0.00000E+00
 -1        11 0.00000E+00 0.00000E+00 0.00000E+00
 -1        12 0.00000E+00 0.00000E+00 0.00000E+00
 -1        13 0.00000E+00 0.00000E+00 0.00000E+00
 -1        14 0.00000E+00 0.00000E+00 0.00000E+00
 -1        15 0.00000E+00 0.00000E+00 0.00000E+00
 -1        16 0.00000E+00 0.00000E+00 0.00000E+00
 -1        17 0.00000E+00 0.00000E+00 0.00000E+00
 -1        18 0.00000E+00 0.00000E+00 0.00000E+00
 -1        19 0.00000E+00 0.00000E+00 0.00000E+00
 -1        20 0.00000E+00 0.00000E+00 0.00000E+00
 -1        21 4.74619E+02-6.82965E+03-4.14947E+03
 -1        22 4.68550E+02-6.84548E+03-4.28487E+03
 -1        23 4.70458E+02-6.82911E+03-4.43693E+03
 -1        24 4.70706E+02-6.80028E+03-2.36677E+03
 -1        25 4.75669E+02-6.74303E+03-2.97741E+02
 -1        26 4.78395E+02-6.80057E+03 1.77013E+03
 -1        27 4.74619E+02-6.82965E+03 4.14947E+03
 -1        28 4.68550E+02-6.84548E+03 4.28487E+03
 -1        29 4.70458E+02-6.82911E+03 4.43693E+03
 -1        30 4.70706E+02-6.80028E+03 2.36677E+03
 -1        31 4.75669E+02-6.74303E+03 2.97741E+02
 -1        32 4.78395E+02-6.80057E+03-1.77013E+03
 -1        33-4.11351E+02 2.17238E+03 1.34076E+03
 -1        34 3.84903E+00 4.57627E+03 1.31013E+03
 -1        35 3.83437E+01 5.95636E+03-4.72233E+01
 -1        36 8.73418E+01 4.99408E+03-1.73729E+03
 -1        37 1.39113E+01 2.17060E+03-2.82263E+03
 -1        38-6.30246E+01-1.50479E+03-2.86306E+03
 -1        39-1.43324E+02-4.39613E+03-1.66539E+03
 -1        40-1.53047E+02-5.37030E+03 1.61744E+02
 -1        41-1.08197E+02-3.95308E+03 1.86017E+03
 -1        42 1.54049E+00-8.69078E+02 2.73422E+03
 -1        43 1.21911E+02 2.53119E+03 2.25136E+03
 -1        44 2.18343E+02 4.65751E+03 7.08065E+02
 -1        45 2.70940E+02 4.48248E+03-1.37737E+03
 -1        46 2.92485E+02 1.87452E+03-3.26373E+03
 -1        47 3.29881E+02-2.27939E+03-4.26090E+03
 -1        48-1.47703E+01-2.25544E+03-3.70723E+03
 -1        49-5.57095E+02 1.93355E+03-2.83962E+03
 -1        50-8.99536E+02 4.56382E+03-1.19839E+03
 -1        51-8.70871E+02 4.73319E+03 6.16056E+02
 -1        52-4.76568E+02 2.57278E+03 1.95881E+03
 -1        53 1.19809E+02-8.77296E+02 2.37893E+03
 -1        54 6.61285E+02-4.00655E+03 1.61845E+03
 -1        55 9.04481E+02-5.44378E+03 1.40727E+02
 -1        56 7.58623E+02-4.45880E+03-1.44898E+03
 -1        57 2.73777E+02-1.52819E+03-2.49102E+03
 -1        58-3.17165E+02 2.19361E+03-2.45585E+03
 -1        59-7.85599E+02 5.05473E+03-1.51154E+03
 -1        60-8.70507E+02 6.01951E+03-4.10869E+01
 -1        61-6.42951E+02 4.62121E+03 1.13989E+03
 -1        62 1.11975E+02 2.13602E+03 1.16654E+03
 -1        63 1.11975E+02 2.13602E+03-1.16654E+03
 -1        64-6.42951E+02 4.62121E+03-1.13989E+03
 -1        65-8.70507E+02 6.01951E+03 4.10869E+01
 -1        66-7.85599E+02 5.05473E+03 1.51154E+03
 -1        67-3.17165E+02 2.19361E+03 2.45585E+03
 -1        68 2.73777E+02-1.52819E+03 2.49102E+03
 -1        69 7.58623E+02-4.45880E+03 1.44898E+03
 -1        70 9.04481E+02-5.44378E+03-1.40727E+02
 -1        71 6.61285E+02-4.00655E+03-1.61845E+03
 -1        72 1.19809E+02-8.77296E+02-2.37893E+03
 -1        73-4.76568E+02 2.57278E+03-1.95881E+03
 -1        74-8.70871E+02 4.73319E+03-6.16056E+02
 -1        75-8.99536E+02 4.56382E+03 1.19839E+03
 -1        76-5.57095E+02 1.93355E+03 2.83962E+03
 -1        77-1.47703E+01-2.25544E+03 3.70723E+03
 -1        78-4.11351E+02 2.17238E+03-1.34076E+03
 -1        79 3.84903E+00 4.57627E+03-1.31013E+03
 -1        80 3.83437E+01 5.95636E+03 4.72233E+01
 -1        81 8.73418E+01 4.99408E+03 1.73729E+03
 -1        82 1.39113E+01 2.17060E+03 2.82263E+03
 -1        83-6.30246E+01-1.50479E+03 2.86306E+03
 -1        84-1.43324E+02-4.39613E+03 1.66539E+03
 -1        85-1.53047E+02-5.37030E+03-1.61744E+02
 -1        86-1.08197E+02-3.95308E+03-1.86017E+03
 -1        87 1.54049E+00-8.69078E+02-2.73422E+03
 -1        88 1.21911E+02 2.53119E+03-2.25136E+03
 -1        89 2.18343E+02 4.65751E+03-7.08065E+02
 -1        90 2.70940E+02 4.48248E+03 1.37737E+03
 -1        91 2.92485E+02 1.87452E+03 3.26373E+03
 -1        92 3.29881E+02-2.27939E+03 4.26090E+03
 -1        93 0.00000E+00 0.00000E+00 0.00000E+00
 -1        94 0.00000E+00 0.00000E+00 0.00000E+00
 -1        95 0.00000E+00 0.00000E+00 0.00000E+00
 -1        96 0.00000E+00 0.00000E+00 0.00000E+00
 -1        97 0.00000E+00 0.00000E+00 0.00000E+00
 -1        98 4.69778E+02-6.82776E+03-2.10322E+03
 -1        99 4.74438E+02-6.76070E+03 1.46146E+02
 -1       100 4.71784E+02-6.78957E+03 2.66027E-11
 -1       101 4.74438E+02-6.76070E+03-1.46146E+02
 -1       102 4.69778E+02-6.82776E+03 2.10322E+03
 -1       103-1.40990E+02 2.24581E+03 1.29233E+03
 -1       104-4.91335E+02 4.53696E+03 1.30907E+03
 -1       105-3.36724E+02 4.48342E+03 1.32719E+03
 -1       106-1.66920E+02 4.51457E+03 1.36057E+03
 -1       107-4.22767E+02 5.74778E+03-3.48655E+01
 -1       108-5.81741E+02 4.86857E+03-1.61270E+03
 -1       109-3.66657E+02 4.82390E+03-1.64311E+03
 -1       110-1.44043E+02 4.83869E+03-1.71189E+03
 -1       111-1.54877E+02 2.09444E+03-2.70601E+03
 -1       112 1.93560E+02-1.44951E+03-2.67483E+03
 -1       113 1.09167E+02-1.42514E+03-2.73873E+03
 -1       114 2.47907E+01-1.43796E+03-2.83588E+03
 -1       115 3.20272E+02-4.20367E+03-1.59748E+03
 -1       116 6.54062E+02-5.21454E+03 1.55375E+02
 -1       117 3.91893E+02-5.14039E+03 1.58678E+02
 -1       118 1.24477E+02-5.17810E+03 1.63311E+02
 -1       119 2.86940E+02-3.78856E+03 1.79142E+03
 -1       120 9.15353E+01-8.49107E+02 2.57011E+03
 -1       121 6.18160E+01-8.40219E+02 2.62697E+03
 -1       122 3.23066E+01-8.45055E+02 2.71982E+03
 -1       123-1.85157E+02 2.39948E+03 2.17251E+03
 -1       124-6.14183E+02 4.50245E+03 6.81448E+02
 -1       125-3.45128E+02 4.43001E+03 6.93450E+02
 -1       126-6.82337E+01 4.46493E+03 7.16220E+02
 -1       127-3.30178E+02 4.22616E+03-1.30371E+03
 -1       128-3.57394E+02 1.76129E+03-3.00984E+03
 -1       129-1.49035E+02 1.70155E+03-3.09218E+03
 -1       130 6.80120E+01 1.73192E+03-3.20559E+03
 -1       131 1.52630E+02-2.36571E+03-4.03466E+03
 -1       132-1.56054E+02 2.02902E+03 8.97999E+01
 -1       133-1.53366E+02 4.72529E+03 4.63293E+02
 -1       134-3.11538E+02 4.84588E+03 9.22222E+01
 -1       135-4.75594E+02 4.74783E+03-2.77789E+02
 -1       136-3.99394E+02 6.08415E+03-2.42269E+00
 -1       137-1.22283E+02 5.20727E+03-8.29246E+02
 -1       138-3.35197E+02 5.27665E+03-1.14174E+02
 -1       139-5.52242E+02 5.23768E+03 5.98231E+02
 -1       140-1.45536E+02 2.22887E+03-1.88031E+02
 -1       141 1.72592E+01-1.56531E+03-1.35035E+03
 -1       142 9.90282E+01-1.57105E+03-1.90305E+02
 -1       143 1.83381E+02-1.57703E+03 9.67426E+02
 -1       144 2.92099E+02-4.60912E+03-1.11004E+02
 -1       145 9.88705E+01-5.58368E+03 6.81776E+01
 -1       146 3.57188E+02-5.63984E+03 1.10260E+01
 -1       147 6.23279E+02-5.62048E+03-4.60332E+01
 -1       148 2.63254E+02-4.12944E+03 1.24479E+02
 -1       149 2.97049E+01-8.89063E+02 1.26108E+03
 -1       150 5.83839E+01-8.89610E+02 1.82540E+02
 -1       151 8.80166E+01-8.93178E+02-8.93505E+02
 -1       152-1.66732E+02 2.66465E+03 1.50960E+02
 -1       153-4.15937E+01 4.89145E+03 2.98767E+02
 -1       154-3.07826E+02 4.96682E+03 4.81855E+01
 -1       155-5.81520E+02 4.92939E+03-2.01648E+02
 -1       156-2.93661E+02 4.75168E+03-9.05901E+01
 -1       157 8.99897E+01 2.06751E+03-1.62448E+03
 -1       158-1.18235E+02 2.14481E+03-2.14865E+02
 -1       159-3.32721E+02 2.09707E+03 1.19259E+03
 -1       160 1.64385E+02-2.19653E+03-2.80355E+02
 -1       161-1.40990E+02 2.24581E+03-1.29233E+03
 -1       162-4.91335E+02 4.53696E+03-1.30907E+03
 -1       163-3.36724E+02 4.48342E+03-1.32719E+03
 -1       164-1.66920E+02 4.51457E+03-1.36057E+03
 -1       165-4.22767E+02 5.74778E+03 3.48655E+01
 -1       166-5.81741E+02 4.86857E+03 1.61270E+03
 -1       167-3.66657E+02 4.82390E+03 1.64311E+03
 -1       168-1.44043E+02 4.83869E+03 1.71189E+03
 -1       169-1.54877E+02 2.09444E+03 2.70601E+03
 -1       170 1.93560E+02-1.44951E+03 2.67483E+03
 -1       171 1.09167E+02-1.42514E+03 2.73873E+03
 -1       172 2.47907E+01-1.43796E+03 2.83588E+03
 -1       173 3.20272E+02-4.20367E+03 1.59748E+03
 -1       174 6.54062E+02-5.21454E+03-1.55375E+02
 -1       175 3.91893E+02-5.14039E+03-1.58678E+02
 -1       176 1.24477E+02-5.17810E+03-1.63311E+02
 -1       177 2.86940E+02-3.78856E+03-1.79142E+03
 -1       178 9.15353E+01-8.49107E+02-2.57011E+03
 -1       179 6.18160E+01-8.40219E+02-2.62697E+03
 -1       180 3.23066E+01-8.45055E+02-2.71982E+03
 -1       181-1.85157E+02 2.39948E+03-2.17251E+03
 -1       182-6.14183E+02 4.50245E+03-6.81448E+02
 -1       183-3.45128E+02 4.43001E+03-6.93450E+02
 -1       184-6.82337E+01 4.46493E+03-7.16220E+02
 -1       185-3.30178E+02 4.22616E+03 1.30371E+03
 -1       186-3.57394E+02 1.76129E+03 3.00984E+03
 -1       187-1.49035E+02 1.70155E+03 3.09218E+03
 -1       188 6.80120E+01 1.73192E+03 3.20559E+03
 -1       189 1.52630E+02-2.36571E+03 4.03466E+03
 -1       190-1.56054E+02 2.02902E+03-8.97999E+01
 -1       191-1.53366E+02 4.72529E+03-4.63293E+02
 -1       192-3.11538E+02 4.84588E+03-9.22222E+01
 -1       193-4.75594E+02 4.74783E+03 2.77789E+02
 -1       194-3.99394E+02 6.08415E+03 2.42269E+00
 -1       195-1.22283E+02 5.20727E+03 8.29246E+02
 -1       196-3.35197E+02 5.27665E+03 1.14174E+02
 -1       197-5.52242E+02 5.23768E+03-5.98231E+02
 -1       198-1.45536E+02 2.22887E+03 1.88031E+02
 -1       199 1.72592E+01-1.56531E+03 1.35035E+03
 -1       200 9.90282E+01-1.57105E+03 1.90305E+02
 -1       201 1.83381E+02-1.57703E+03-9.67426E+02
 -1       202 2.92099E+02-4.60912E+03 1.11004E+02
 -1       203 9.88705E+01-5.58368E+03-6.81776E+01
 -1       204 3.57188E+02-5.63984E+03-1.10260E+01
 -1       205 6.23279E+02-5.62048E+03 4.60332E+01
 -1       206 2.63254E+02-4.12944E+03-1.24479E+02
 -1       207 2.97049E+01-8.89063E+02-1.26108E+03
 -1       208 5.83839E+01-8.89610E+02-1.82540E+02
 -1       209 8.80166E+01-8.93178E+02 8.93505E+02
 -1       210-1.66732E+02 2.66465E+03-1.50960E+02
 -1       211-4.15937E+01 4.89145E+03-2.98767E+02
 -1       212-3.07826E+02 4.96682E+03-4.81855E+01
 -1       213-5.81520E+02 4.92939E+03 2.01648E+02
 -1       214-2.93661E+02 4.75168E+03 9.05901E+01
 -1       215 8.99897E+01 2.06751E+03 1.62448E+03
 -1       216-1.18235E+02 2.14481E+03 2.14865E+02
 -1       217-3.32721E+02 2.09707E+03-1.19259E+03
 -1       218 1.64385E+02-2.19653E+03 2.80355E+02
 -1       219-1.45594E+02 2.09528E+03-2.84217E-11
 -1       220-3.31915E+02 4.62431E+03 4.66079E+02
 -1       221-3.21328E+02 4.77668E+03-3.23862E+01
 -1       222-3.29158E+02 4.73700E+03-6.23430E-11
 -1       223-3.21328E+02 4.77668E+03 3.23862E+01
 -1       224-3.31915E+02 4.62431E+03-4.66079E+02
 -1       225-4.08247E+02 5.87519E+03-7.63976E-11
 -1       226-3.55108E+02 5.02638E+03-7.44982E+02
 -1       227-3.49266E+02 5.11046E+03 5.17663E+01
 -1       228-3.52908E+02 5.07879E+03-9.64064E-11
 -1       229-3.49266E+02 5.11046E+03-5.17663E+01
 -1       230-3.55108E+02 5.02638E+03 7.44982E+02
 -1       231-1.49653E+02 2.15370E+03-1.20508E-10
 -1       232 1.04590E+02-1.48647E+03-1.22910E+03
 -1       233 1.03290E+02-1.50518E+03 8.54058E+01
 -1       234 1.03618E+02-1.49119E+03-1.26420E-10
 -1       235 1.03290E+02-1.50518E+03-8.54058E+01
 -1       236 1.04590E+02-1.48647E+03 1.22910E+03
 -1       237 3.05746E+02-4.40007E+03-1.37788E-10
 -1       238 3.78050E+02-5.34753E+03 6.46491E+01
 -1       239 3.71582E+02-5.44062E+03-4.49225E+00
 -1       240 3.74662E+02-5.39186E+03-1.14369E-10
 -1       241 3.71582E+02-5.44062E+03 4.49225E+00
 -1       242 3.78050E+02-5.34753E+03-6.46491E+01
 -1       243 2.74601E+02-3.95185E+03-8.68567E-11
 -1       244 6.03081E+01-8.62688E+02 1.15639E+03
 -1       245 5.99452E+01-8.67909E+02-8.03536E+01
 -1       246 6.00742E+01-8.64543E+02-5.99130E-11
 -1       247 5.99452E+01-8.67909E+02 8.03536E+01
 -1       248 6.03081E+01-8.62688E+02-1.15639E+03
 -1       249-1.75524E+02 2.52602E+03-3.05818E-11
 -1       250-3.30642E+02 4.64864E+03 2.82526E+02
 -1       251-3.23018E+02 4.75836E+03-1.96317E+01
 -1       252-3.26786E+02 4.70287E+03 2.27374E-13
 -1       253-3.23018E+02 4.75836E+03 1.96317E+01
 -1       254-3.30642E+02 4.64864E+03-2.82526E+02
 -1       255-3.11264E+02 4.47948E+03 2.18279E-11
 -1       256-1.37632E+02 1.87150E+03-1.45407E+03
 -1       257-1.30044E+02 1.98069E+03 1.01038E+02
 -1       258-1.33958E+02 1.92783E+03 3.09228E-11
 -1       259-1.30044E+02 1.98069E+03-1.01038E+02
 -1       260-1.37632E+02 1.87150E+03 1.45407E+03
 -1       261 1.58988E+02-2.28804E+03 4.98233E-11
 -3
    1PSTEP                        20           1           2          
    1PGM                1.000000E+00                                  
    1PGK                4.757120E+12                                  
    1PHID                         -1                                  
    1PSUBC                         0                                  
    1PMODE                        10                                  
  100CL  111 3.47130E+05         261                     2   11MODAL      1
 -4  STRESS      6    1
 -5  SXX         1    4    1    1
 -5  SYY         1    4    2    2
 -5  SZZ         1    4    3    3
 -5  SXY         1    4    1    2
 -5  SYZ         1    4    2    3
 -5  SZX         1    4    3    1
 -1         1 2.23468E+08 2.63685E+08 8.60344E+08-2.74827E+07 2.48108E+08 9.16671E+07
 -1         2 2.62459E+08 2.97451E+08 9.88838E+08 3.15873E+07 2.63316E+08-1.27204E+08
 -1         3-2.23468E+08-2.63685E+08-8.60344E+08 2.74827E+07 2.48108E+08 9.16671E+07
 -1         4-2.62459E+08-2.97451E+08-9.88838E+08-3.15873E+07 2.63316E+08-1.27204E+08
 -1         5-8.24441E+06 2.05843E+07 2.95082E+07 6.85949E+06-1.05994E+07 4.14085E+06
 -1         6-5.44987E+06 1.96327E+07 3.39153E+07-7.88396E+06-1.01240E+07-2.70086E+06
 -1         7 8.24441E+06-2.05843E+07-2.95082E+07-6.85949E+06-1.05994E+07 4.14085E+06
 -1         8 5.44987E+06-1.96327E+07-3.39153E+07 7.88396E+06-1.01240E+07-2.70086E+06
 -1         9 2.39863E+08 2.73834E+08 9.04849E+08-4.57302E+06 2.71998E+08 3.83734E+07
 -1        10 2.48384E+08 2.79835E+08 9.43399E+08 2.26604E+06 2.95891E+08-1.35672E+07
 -1        11 2.51485E+08 2.86568E+08 9.63141E+08 8.89134E+06 2.79605E+08-6.97091E+07
 -1        12 1.11101E+08 1.00699E+08 4.84347E+08 3.15408E+07 2.29235E+08-7.38987E+07
 -1        13 1.94448E+07 1.72594E+07 6.55536E+07 3.26111E+07 1.95249E+08-2.05605E+07
 -1        14-7.21603E+07-6.65567E+07-3.54547E+08 3.06053E+07 2.21725E+08 3.55697E+07
 -1        15-2.39863E+08-2.73834E+08-9.04849E+08 4.57302E+06 2.71998E+08 3.83734E+07
 -1        16-2.48384E+08-2.79835E+08-9.43399E+08-2.26604E+06 2.95891E+08-1.35672E+07
 -1        17-2.51485E+08-2.86568E+08-9.63141E+08-8.89134E+06 2.79605E+08-6.97091E+07
 -1        18-1.11101E+08-1.00699E+08-4.84347E+08-3.15408E+07 2.29235E+08-7.38987E+07
 -1        19-1.94448E+07-1.72594E+07-6.55536E+07-3.26111E+07 1.95249E+08-2.05605E+07
 -1        20 7.21603E+07 6.65567E+07 3.54547E+08-3.06053E+07 2.21725E+08 3.55697E+07
 -1        21-9.11223E+05 1.30157E+07 3.58301E+07-1.62028E+06-5.82048E+06 5.75997E+06
 -1        22 8.21849E+06 6.10434E+06 4.23488E+07 1.14530E+05-1.22146E+06 4.69506E+06
 -1        23 2.28257E+06 1.31972E+07 3.82304E+07 1.22257E+06-5.76267E+06-3.44912E+05
 -1        24 2.21654E+06 2.30290E+07 1.98447E+07-2.76298E+06-3.87527E+07-1.34857E+04
 -1        25 4.24170E+05 5.71075E+05 2.94267E+06 1.64823E+06-6.75678E+07 8.48752E+04
 -1        26-3.95100E+05-2.29337E+07-1.46985E+07-2.96052E+06-3.91769E+07 8.18359E+05
 -1        27 9.11223E+05-1.30157E+07-3.58301E+07 1.62028E+06-5.82048E+06 5.75997E+06
 -1        28-8.21849E+06-6.10434E+06-4.23488E+07-1.14530E+05-1.22146E+06 4.69506E+06
 -1        29-2.28257E+06-1.31972E+07-3.82304E+07-1.22257E+06-5.76267E+06-3.44912E+05
 -1        30-2.21654E+06-2.30290E+07-1.98447E+07 2.76298E+06-3.87527E+07-1.34857E+04
 -1        31-4.24170E+05-5.71075E+05-2.94267E+06-1.64823E+06-6.75678E+07 8.48752E+04
 -1        32 3.95100E+05 2.29337E+07 1.46985E+07 2.96052E+06-3.91769E+07 8.18359E+05
 -1        33 6.76847E+07 1.00189E+08 2.97264E+08 1.86895E+07 1.22917E+08-1.06264E+07
 -1        34-6.02139E+07-7.05394E+07-4.33471E+08-9.56770E+06 1.11797E+07 4.03754E+07
 -1        35-7.97096E+06-3.95628E+07-6.15104E+08-9.37159E+06 2.47793E+06-5.32889E+06
 -1        36 4.09665E+05 2.36823E+06-7.01562E+08 5.83099E+06-2.17243E+07 1.65212E+06
 -1        37 2.03750E+06 2.16552E+06-2.25347E+08 5.87243E+05-3.49624E+07-9.07444E+06
 -1        38-4.53566E+06-5.86688E+06 2.76631E+08-1.07995E+06-5.14056E+07-9.96583E+06
 -1        39 3.90863E+06 1.36484E+07 6.17294E+08 1.22286E+06-2.44771E+07-5.76067E+06
 -1        40-2.24503E+06 3.82581E+06 8.70749E+08-1.55651E+05 4.56534E+06 1.50298E+06
 -1        41 4.21130E+06 1.44591E+07 5.24686E+08 1.59204E+06 3.23027E+07 6.77323E+06
 -1        42-4.50424E+05 6.73789E+04 1.03324E+08-1.81257E+05 5.17483E+07 1.14517E+07
 -1        43-2.71052E+06-9.19038E+06-4.15056E+08-9.63980E+05 4.16298E+07 8.63412E+06
 -1        44 2.58290E+06-2.28186E+06-8.75594E+08 9.50938E+05 2.31655E+07 4.45950E+06
 -1        45-4.19826E+06-1.57308E+07-8.16614E+08-1.78126E+06-1.00563E+07-1.96206E+06
 -1        46 9.83102E+05-7.20180E+06-6.54358E+08 1.34661E+06-3.60705E+07-7.94747E+06
 -1        47 2.07275E+06 1.29349E+07-2.70027E+08-9.79161E+05-2.17773E+07-6.07903E+06
 -1        48 2.86538E+05 1.27710E+07-2.34939E+08 8.51925E+05-2.28375E+07 9.17916E+06
 -1        49 1.99835E+06-7.40897E+06-5.69328E+08-1.17163E+06-3.75304E+07 1.30618E+07
 -1        50-2.04223E+06-1.52972E+07-7.10500E+08 1.54980E+06-1.04279E+07 3.38544E+06
 -1        51 2.92662E+06-2.66469E+06-7.61816E+08-8.27369E+05 2.40131E+07-7.73778E+06
 -1        52-1.45341E+06-8.90104E+06-3.61122E+08 8.38717E+05 4.32395E+07-1.45314E+07
 -1        53-4.64204E+05 1.30933E+05 8.98976E+07 1.57704E+05 5.38497E+07-1.87893E+07
 -1        54 2.23299E+06 1.40113E+07 4.56506E+08-1.38516E+06 3.35621E+07-1.13500E+07
 -1        55-2.80108E+06 4.17645E+06 7.57601E+08 1.35425E+05 4.81952E+06-2.15510E+06
 -1        56 2.04060E+06 1.32350E+07 5.37080E+08-1.06396E+06-2.55190E+07 9.23473E+06
 -1        57-3.76038E+06-5.29042E+06 2.40684E+08 9.39617E+05-5.32961E+07 1.72412E+07
 -1        58 1.75486E+06 1.90200E+06-1.96065E+08-5.10935E+05-3.65689E+07 1.40449E+07
 -1        59 8.29235E+04 2.33400E+06-6.10398E+08-5.07329E+06-2.17044E+07 1.36560E+06
 -1        60-2.52346E+06-3.88336E+07-5.35175E+08 8.15381E+06 1.75781E+06 5.03456E+06
 -1        61-5.09475E+07-6.28152E+07-3.77145E+08 8.32444E+06 1.69265E+07-4.23284E+07
 -1        62 5.43504E+07 9.17094E+07 2.58636E+08-1.62609E+07 1.22626E+08-6.43552E+06
 -1        63-5.43504E+07-9.17094E+07-2.58636E+08 1.62609E+07 1.22626E+08-6.43552E+06
 -1        64 5.09475E+07 6.28152E+07 3.77145E+08-8.32444E+06 1.69265E+07-4.23284E+07
 -1        65 2.52346E+06 3.88336E+07 5.35175E+08-8.15381E+06 1.75781E+06 5.03456E+06
 -1        66-8.29235E+04-2.33400E+06 6.10398E+08 5.07329E+06-2.17044E+07 1.36560E+06
 -1        67-1.75486E+06-1.90200E+06 1.96065E+08 5.10935E+05-3.65689E+07 1.40449E+07
 -1        68 3.76038E+06 5.29042E+06-2.40684E+08-9.39617E+05-5.32961E+07 1.72412E+07
 -1        69-2.04060E+06-1.32350E+07-5.37080E+08 1.06396E+06-2.55190E+07 9.23473E+06
 -1        70 2.80108E+06-4.17645E+06-7.57601E+08-1.35425E+05 4.81952E+06-2.15510E+06
 -1        71-2.23299E+06-1.40113E+07-4.56506E+08 1.38516E+06 3.35621E+07-1.13500E+07
 -1        72 4.64204E+05-1.30933E+05-8.98976E+07-1.57704E+05 5.38497E+07-1.87893E+07
 -1        73 1.45341E+06 8.90104E+06 3.61122E+08-8.38717E+05 4.32395E+07-1.45314E+07
 -1        74-2.92662E+06 2.66469E+06 7.61816E+08 8.27369E+05 2.40131E+07-7.73778E+06
 -1        75 2.04223E+06 1.52972E+07 7.10500E+08-1.54980E+06-1.04279E+07 3.38544E+06
 -1        76-1.99835E+06 7.40897E+06 5.69328E+08 1.17163E+06-3.75304E+07 1.30618E+07
 -1        77-2.86538E+05-1.27710E+07 2.34939E+08-8.51925E+05-2.28375E+07 9.17916E+06
 -1        78-6.76847E+07-1.00189E+08-2.97264E+08-1.86895E+07 1.22917E+08-1.06264E+07
 -1        79 6.02139E+07 7.05394E+07 4.33471E+08 9.56770E+06 1.11797E+07 4.03754E+07
 -1        80 7.97096E+06 3.95628E+07 6.15104E+08 9.37159E+06 2.47793E+06-5.32889E+06
 -1        81-4.09665E+05-2.36823E+06 7.01562E+08-5.83099E+06-2.17243E+07 1.65212E+06
 -1        82-2.03750E+06-2.16552E+06 2.25347E+08-5.87243E+05-3.49624E+07-9.07444E+06
 -1        83 4.53566E+06 5.86688E+06-2.76631E+08 1.07995E+06-5.14056E+07-9.96583E+06
 -1        84-3.90863E+06-1.36484E+07-6.17294E+08-1.22286E+06-2.44771E+07-5.76067E+06
 -1        85 2.24503E+06-3.82581E+06-8.70749E+08 1.55651E+05 4.56534E+06 1.50298E+06
 -1        86-4.21130E+06-1.44591E+07-5.24686E+08-1.59204E+06 3.23027E+07 6.77323E+06
 -1        87 4.50424E+05-6.73789E+04-1.03324E+08 1.81257E+05 5.17483E+07 1.14517E+07
 -1        88 2.71052E+06 9.19038E+06 4.15056E+08 9.63980E+05 4.16298E+07 8.63412E+06
 -1        89-2.58290E+06 2.28186E+06 8.75594E+08-9.50938E+05 2.31655E+07 4.45950E+06
 -1        90 4.19826E+06 1.57308E+07 8.16614E+08 1.78126E+06-1.00563E+07-1.96206E+06
 -1        91-9.83102E+05 7.20180E+06 6.54358E+08-1.34661E+06-3.60705E+07-7.94747E+06
 -1        92-2.07275E+06-1.29349E+07 2.70027E+08 9.79161E+05-2.17773E+07-6.07903E+06
 -1        93 9.38240E+07 7.96663E+07 4.30722E+08 6.81488E+05 2.61309E+08-1.46608E+07
 -1        94-5.53574E+06-6.51951E+06-2.99294E+07-9.80747E+06 2.10988E+08-1.81575E+07
 -1        95-3.03611E-06-6.23614E-06-1.35899E-05-3.96278E-07 2.26726E+08-1.57545E+07
 -1        96 5.53574E+06 6.51951E+06 2.99294E+07 9.80747E+06 2.10988E+08-1.81575E+07
 -1        97-9.38240E+07-7.96663E+07-4.30722E+08-6.81488E+05 2.61309E+08-1.46608E+07
 -1        98 9.15269E+06 1.66497E+07 2.31251E+07 2.47672E+05-2.33805E+07 3.92972E+06
 -1        99-1.15693E+06-6.35990E+05-1.60689E+06-3.56432E+06-5.65536E+07 1.62463E+06
 -1       100-4.09523E-05-4.40758E-05-3.62806E-05-1.30243E-05-4.55395E+07 3.16438E+06
 -1       101 1.15693E+06 6.35990E+05 1.60689E+06 3.56432E+06-5.65536E+07 1.62463E+06
 -1       102-9.15269E+06-1.66497E+07-2.31251E+07-2.47672E+05-2.33805E+07 3.92972E+06
 -1       103 7.42342E+07 1.03303E+08 3.11829E+08 1.40529E+06 1.20879E+08-2.07632E+07
 -1       104-5.61655E+07-6.68224E+07-3.98913E+08 1.29048E+06-7.56282E+04-4.29072E+07
 -1       105-5.88956E+07-6.96183E+07-4.19093E+08-6.59628E+05-1.67398E+07-2.44466E+07
 -1       106-5.83108E+07-6.94732E+07-4.25488E+08-2.57174E+06-2.61110E+06 1.74841E+07
 -1       107-1.58286E+07-4.21170E+07-6.13780E+08-7.72543E+05-5.67385E+05-6.61538E+06
 -1       108 6.31151E+05 5.66742E+06-6.43354E+08 1.31397E+06-1.74531E+07 1.06440E+07
 -1       109-1.68161E+06 8.37973E+06-6.75307E+08 3.32181E+05-1.33686E+07 1.00439E+07
 -1       110-2.06646E+06 5.06342E+06-6.87933E+08-6.02939E+05-1.76298E+07 9.08745E+05
 -1       111-1.02299E+06 2.19249E+06-2.22996E+08 8.49512E+03-2.28090E+07 1.66851E+07
 -1       112-2.89147E+06-5.38113E+06 2.55375E+08-6.71146E+05-4.36707E+07 2.62597E+07
 -1       113-1.38251E+06-5.36034E+06 2.69722E+08-5.68499E+04-3.43495E+07 2.09488E+07
 -1       114-2.63905E+06-5.55786E+06 2.73005E+08 5.44130E+05-4.30296E+07-1.67331E+06
 -1       115 8.08136E+06 1.21366E+07 5.98847E+08 1.71721E+05-1.66060E+07 9.96150E+06
 -1       116 1.00614E+06 4.14178E+06 8.03253E+08-1.19278E+06 3.92111E+06-2.81430E+06
 -1       117 6.10619E+06 4.09871E+06 8.47443E+08 1.00480E+05 3.05243E+06-2.23761E+06
 -1       118 2.57699E+06 3.95806E+06 8.58365E+08 1.28315E+06 3.82375E+06 2.50635E+05
 -1       119 8.11135E+06 1.30982E+07 5.10575E+08 2.00725E+05 2.18760E+07-1.33466E+07
 -1       120 8.29988E+04-1.33212E+04 9.58534E+07-3.05833E+05 4.38771E+07-2.93515E+07
 -1       121 7.92464E+05-1.78746E+05 1.01549E+08 2.97064E+03 3.42408E+07-2.32165E+07
 -1       122 2.52151E+05-6.62687E+04 1.02306E+08 2.97027E+05 4.31626E+07 2.46619E+06
 -1       123-4.39103E+06-7.89943E+06-4.00381E+08-1.18850E+05 2.80836E+07-1.72098E+07
 -1       124 5.63368E+05-1.69510E+06-8.05286E+08 1.14152E+06 1.95447E+07-1.17229E+07
 -1       125-3.24542E+06-8.86292E+05-8.47694E+08-3.50106E+04 1.52055E+07-9.47867E+06
 -1       126-1.05403E+06-1.66446E+06-8.61113E+08-1.11475E+06 1.92501E+07 6.05077E+05
 -1       127-8.39118E+06-1.54362E+07-7.86644E+08-2.22153E+05-6.40840E+06 2.54789E+06
 -1       128 1.60700E+06-5.69204E+06-5.95202E+08 4.21165E+05-3.07864E+07 1.97245E+07
 -1       129 7.23580E+05-3.98057E+06-6.20529E+08-5.88183E+04-2.42492E+07 1.44187E+07
 -1       130 6.07303E+05-5.59392E+06-6.37170E+08-3.92491E+05-3.02633E+07-2.74864E+06
 -1       131 9.92541E+06 1.01462E+07-2.48484E+08 1.42926E+05-1.33217E+07 1.03362E+07
 -1       132 7.17816E+06 5.15828E+06 2.16679E+07 2.02239E+07 2.98808E+08-8.39948E+06
 -1       133-2.38092E+07-1.94135E+07-2.19869E+08-9.35366E+06 1.80837E+08 1.83376E+07
 -1       134-4.83754E+06-4.09245E+06-2.91213E+07-9.49288E+06 3.51818E+08 1.16319E+06
 -1       135 1.43384E+07 1.14589E+07 1.62584E+08-9.08529E+06 1.85034E+08-1.81509E+07
 -1       136-2.92656E+06-1.09987E+06-4.26495E+07-1.11179E+07 9.52037E+07 3.94256E+04
 -1       137-3.97328E+06-1.94609E+07-3.67031E+08 5.04972E+06-8.27910E+07 2.49033E+06
 -1       138 5.82279E+05-1.16849E+05-4.69248E+07 4.78050E+06-1.44544E+08 9.28935E+05
 -1       139 4.71893E+06 1.93612E+07 2.74524E+08 5.18292E+06-8.34675E+07-5.25409E+04
 -1       140 1.52349E+05-7.10844E+04-1.54952E+07 1.22255E+05-2.40120E+08 1.58492E+06
 -1       141-1.65179E+06 1.62422E+06 1.45222E+08-8.71740E+05-1.75944E+08-1.60092E+06
 -1       142-3.72472E+05-9.60657E+04 1.87421E+07-8.18142E+05-3.01479E+08 2.38683E+06
 -1       143 8.91674E+05-2.00851E+06-1.08507E+08-9.56186E+05-1.77885E+08 7.62543E+06
 -1       144 8.43329E+05 5.61546E+05 4.16118E+07 2.47129E+06-1.43359E+08 1.15389E+06
 -1       145-1.04055E+06 1.14277E+07 4.54293E+08 7.36272E+05 1.83407E+07 4.31464E+05
 -1       146 2.84806E+05 4.24299E+05 5.88860E+07 1.44604E+06 3.22020E+07-2.12103E+05
 -1       147 1.60338E+06-1.11787E+07-3.38833E+08 5.64228E+05 1.85537E+07-9.69628E+05
 -1       148 9.10150E+05 5.63630E+05 3.54781E+07 2.88868E+06 1.92074E+08-1.52009E+06
 -1       149-3.83756E+05 1.22880E+06 5.33184E+07-4.24190E+04 1.92351E+08 2.11695E+06
 -1       150-1.24205E+04 5.50656E+04 7.05631E+06 4.27513E+04 3.34115E+08-2.37928E+06
 -1       151 3.78226E+05-1.20551E+06-3.95490E+07-8.43098E+04 1.94562E+08-8.16505E+06
 -1       152-5.48904E+05-3.05118E+05-2.78211E+07-1.71040E+06 2.47670E+08-1.95144E+06
 -1       153 1.03738E+05-1.16552E+07-4.59606E+08 1.14264E+05 7.95714E+07 7.72302E+05
 -1       154-6.15854E+04-2.25513E+05-5.89034E+07-5.03846E+05 1.36410E+08-1.05658E+06
 -1       155-3.37183E+05 1.16212E+07 3.43814E+08 2.71044E+05 8.04280E+07-3.46802E+06
 -1       156-1.07261E+06-5.83074E+05-5.46612E+07-3.19707E+06-3.66673E+07 4.45298E+05
 -1       157 3.13933E+05-7.11655E+06-3.44808E+08 1.78057E+05-1.21371E+08-1.64283E+06
 -1       158-2.76596E+05 5.02791E+04-4.31184E+07-8.46469E+05-2.07503E+08 1.68499E+06
 -1       159-1.09816E+06 7.27042E+06 2.59175E+08 2.34596E+05-1.22933E+08 5.88496E+06
 -1       160 7.05028E+05 6.89683E+05-1.72663E+07 2.05688E+06-1.48752E+08 9.25677E+05
 -1       161-7.42342E+07-1.03303E+08-3.11829E+08-1.40529E+06 1.20879E+08-2.07632E+07
 -1       162 5.61655E+07 6.68224E+07 3.98913E+08-1.29048E+06-7.56282E+04-4.29072E+07
 -1       163 5.88956E+07 6.96183E+07 4.19093E+08 6.59628E+05-1.67398E+07-2.44466E+07
 -1       164 5.83108E+07 6.94732E+07 4.25488E+08 2.57174E+06-2.61110E+06 1.74841E+07
 -1       165 1.58286E+07 4.21170E+07 6.13780E+08 7.72543E+05-5.67385E+05-6.61538E+06
 -1       166-6.31151E+05-5.66742E+06 6.43354E+08-1.31397E+06-1.74531E+07 1.06440E+07
 -1       167 1.68161E+06-8.37973E+06 6.75307E+08-3.32181E+05-1.33686E+07 1.00439E+07
 -1       168 2.06646E+06-5.06342E+06 6.87933E+08 6.02939E+05-1.76298E+07 9.08745E+05
 -1       169 1.02299E+06-2.19249E+06 2.22996E+08-8.49512E+03-2.28090E+07 1.66851E+07
 -1       170 2.89147E+06 5.38113E+06-2.55375E+08 6.71146E+05-4.36707E+07 2.62597E+07
 -1       171 1.38251E+06 5.36034E+06-2.69722E+08 5.68499E+04-3.43495E+07 2.09488E+07
 -1       172 2.63905E+06 5.55786E+06-2.73005E+08-5.44130E+05-4.30296E+07-1.67331E+06
 -1       173-8.08136E+06-1.21366E+07-5.98847E+08-1.71721E+05-1.66060E+07 9.96150E+06
 -1       174-1.00614E+06-4.14178E+06-8.03253E+08 1.19278E+06 3.92111E+06-2.81430E+06
 -1       175-6.10619E+06-4.09871E+06-8.47443E+08-1.00480E+05 3.05243E+06-2.23761E+06
 -1       176-2.57699E+06-3.95806E+06-8.58365E+08-1.28315E+06 3.82375E+06 2.50635E+05
 -1       177-8.11135E+06-1.30982E+07-5.10575E+08-2.00725E+05 2.18760E+07-1.33466E+07
 -1       178-8.29988E+04 1.33212E+04-9.58534E+07 3.05833E+05 4.38771E+07-2.93515E+07
 -1       179-7.92464E+05 1.78746E+05-1.01549E+08-2.97064E+03 3.42408E+07-2.32165E+07
 -1       180-2.52151E+05 6.62687E+04-1.02306E+08-2.97027E+05 4.31626E+07 2.46619E+06
 -1       181 4.39103E+06 7.89943E+06 4.00381E+08 1.18850E+05 2.80836E+07-1.72098E+07
 -1       182-5.63368E+05 1.69510E+06 8.05286E+08-1.14152E+06 1.95447E+07-1.17229E+07
 -1       183 3.24542E+06 8.86292E+05 8.47694E+08 3.50106E+04 1.52055E+07-9.47867E+06
 -1       184 1.05403E+06 1.66446E+06 8.61113E+08 1.11475E+06 1.92501E+07 6.05077E+05
 -1       185 8.39118E+06 1.54362E+07 7.86644E+08 2.22153E+05-6.40840E+06 2.54789E+06
 -1       186-1.60700E+06 5.69204E+06 5.95202E+08-4.21165E+05-3.07864E+07 1.97245E+07
 -1       187-7.23580E+05 3.98057E+06 6.20529E+08 5.88183E+04-2.42492E+07 1.44187E+07
 -1       188-6.07303E+05 5.59392E+06 6.37170E+08 3.92491E+05-3.02633E+07-2.74864E+06
 -1       189-9.92541E+06-1.01462E+07 2.48484E+08-1.42926E+05-1.33217E+07 1.03362E+07
 -1       190-7.17816E+06-5.15828E+06-2.16679E+07-2.02239E+07 2.98808E+08-8.39948E+06
 -1       191 2.38092E+07 1.94135E+07 2.19869E+08 9.35366E+06 1.80837E+08 1.83376E+07
 -1       192 4.83754E+06 4.09245E+06 2.91213E+07 9.49288E+06 3.51818E+08 1.16319E+06
 -1       193-1.43384E+07-1.14589E+07-1.62584E+08 9.08529E+06 1.85034E+08-1.81509E+07
 -1       194 2.92656E+06 1.09987E+06 4.26495E+07 1.11179E+07 9.52037E+07 3.94256E+04
 -1       195 3.97328E+06 1.94609E+07 3.67031E+08-5.04972E+06-8.27910E+07 2.49033E+06
 -1       196-5.82279E+05 1.16849E+05 4.69248E+07-4.78050E+06-1.44544E+08 9.28935E+05
 -1       197-4.71893E+06-1.93612E+07-2.74524E+08-5.18292E+06-8.34675E+07-5.25409E+04
 -1       198-1.52349E+05 7.10844E+04 1.54952E+07-1.22255E+05-2.40120E+08 1.58492E+06
 -1       199 1.65179E+06-1.62422E+06-1.45222E+08 8.71740E+05-1.75944E+08-1.60092E+06
 -1       200 3.72472E+05 9.60657E+04-1.87421E+07 8.18142E+05-3.01479E+08 2.38683E+06
 -1       201-8.91674E+05 2.00851E+06 1.08507E+08 9.56186E+05-1.77885E+08 7.62543E+06
 -1       202-8.43329E+05-5.61546E+05-4.16118E+07-2.47129E+06-1.43359E+08 1.15389E+06
 -1       203 1.04055E+06-1.14277E+07-4.54293E+08-7.36272E+05 1.83407E+07 4.31464E+05
 -1       204-2.84806E+05-4.24299E+05-5.88860E+07-1.44604E+06 3.22020E+07-2.12103E+05
 -1       205-1.60338E+06 1.11787E+07 3.38833E+08-5.64228E+05 1.85537E+07-9.69628E+05
 -1       206-9.10150E+05-5.63630E+05-3.54781E+07-2.88868E+06 1.92074E+08-1.52009E+06
 -1       207 3.83756E+05-1.22880E+06-5.33184E+07 4.24190E+04 1.92351E+08 2.11695E+06
 -1       208 1.24205E+04-5.50656E+04-7.05631E+06-4.27513E+04 3.34115E+08-2.37928E+06
 -1       209-3.78226E+05 1.20551E+06 3.95490E+07 8.43098E+04 1.94562E+08-8.16505E+06
 -1       210 5.48904E+05 3.05118E+05 2.78211E+07 1.71040E+06 2.47670E+08-1.95144E+06
 -1       211-1.03738E+05 1.16552E+07 4.59606E+08-1.14264E+05 7.95714E+07 7.72302E+05
 -1       212 6.15854E+04 2.25513E+05 5.89034E+07 5.03846E+05 1.36410E+08-1.05658E+06
 -1       213 3.37183E+05-1.16212E+07-3.43814E+08-2.71044E+05 8.04280E+07-3.46802E+06
 -1       214 1.07261E+06 5.83074E+05 5.46612E+07 3.19707E+06-3.66673E+07 4.45298E+05
 -1       215-3.13933E+05 7.11655E+06 3.44808E+08-1.78057E+05-1.21371E+08-1.64283E+06
 -1       216 2.76596E+05-5.02791E+04 4.31184E+07 8.46469E+05-2.07503E+08 1.68499E+06
 -1       217 1.09816E+06-7.27042E+06-2.59175E+08-2.34596E+05-1.22933E+08 5.88496E+06
 -1       218-7.05028E+05-6.89683E+05 1.72663E+07-2.05688E+06-1.48752E+08 9.25677E+05
 -1       219-2.72132E-06-7.67410E-07-1.47298E-05-9.42498E-07 2.68761E+08-1.86753E+07
 -1       220-2.03975E+07-1.55402E+07-1.98372E+08-1.73222E+05 1.27989E+08-2.16984E+07
 -1       221 1.07984E+06 1.41735E+06 1.37842E+07 2.49289E+06 3.12267E+08-8.89350E+06
 -1       222-3.22331E-06 4.31947E-06-1.10213E-05-1.51456E-06 2.72717E+08-1.89502E+07
 -1       223-1.07984E+06-1.41735E+06-1.37842E+07-2.49289E+06 3.12267E+08-8.89350E+06
 -1       224 2.03975E+07 1.55402E+07 1.98372E+08 1.73222E+05 1.27989E+08-2.16984E+07
 -1       225-2.76323E-06 7.12741E-06-6.18771E-06-7.59610E-07 7.76741E+07-5.39731E+06
 -1       226-6.41794E+06-1.67296E+07-3.33801E+08-1.13119E+05-6.18176E+07 8.85297E+06
 -1       227 1.16248E+06 4.45961E+05 2.31947E+07 1.62792E+06-1.27405E+08 4.29550E+06
 -1       228-3.60422E-07 1.18534E-05-6.90552E-06-1.48546E-07-1.10267E+08 7.66206E+06
 -1       229-1.16248E+06-4.45961E+05-2.31947E+07-1.62792E+06-1.27405E+08 4.29550E+06
 -1       230 6.41794E+06 1.67296E+07 3.33801E+08 1.13119E+05-6.18176E+07 8.85297E+06
 -1       231-2.59886E-06 5.81983E-06-2.39909E-06-2.21643E-06-1.88801E+08 1.31192E+07
 -1       232 3.70957E+05 1.84115E+06 1.33347E+08 5.55792E+04-1.35298E+08 1.86823E+07
 -1       233-1.27935E+05-2.57766E+04-9.26585E+06-7.99855E+05-2.68862E+08 9.40138E+06
 -1       234-8.14279E-06 8.69979E-07-3.83845E-06-3.63030E-06-2.36246E+08 1.64159E+07
 -1       235 1.27935E+05 2.57766E+04 9.26585E+06 7.99855E+05-2.68862E+08 9.40138E+06
 -1       236-3.70957E+05-1.84115E+06-1.33347E+08-5.55792E+04-1.35298E+08 1.86823E+07
 -1       237-9.63558E-06-1.56369E-06 7.22706E-07-1.40443E-06-1.12622E+08 7.82574E+06
 -1       238 3.74240E+06 1.08659E+07 4.16183E+08 1.97884E+05 1.43718E+07-2.01140E+06
 -1       239-7.55037E+05-2.60047E+05-2.89191E+07-2.84780E+06 2.89466E+07-9.98647E+05
 -1       240-6.57095E-06-1.15437E-06 1.18806E-05 7.91857E-07 2.56912E+07-1.78519E+06
 -1       241 7.55037E+05 2.60047E+05 2.89191E+07 2.84780E+06 2.89466E+07-9.98647E+05
 -1       242-3.74240E+06-1.08659E+07-4.16183E+08-1.97884E+05 1.43718E+07-2.01140E+06
 -1       243-3.44822E-06 1.10960E-05 1.15484E-05 1.45682E-06 1.51078E+08-1.04979E+07
 -1       244 5.43678E+05 1.43682E+06 4.95459E+07 2.82960E+04 1.48421E+08-2.07319E+07
 -1       245-9.98400E+04-3.77783E+04-3.44277E+06-4.07215E+05 2.98358E+08-1.03133E+07
 -1       246-3.03821E-06 1.75876E-05 1.09426E-05-9.40054E-08 2.62601E+08-1.82472E+07
 -1       247 9.98400E+04 3.77783E+04 3.44277E+06 4.07215E+05 2.98358E+08-1.03133E+07
 -1       248-5.43678E+05-1.43682E+06-4.95459E+07-2.82960E+04 1.48421E+08-2.07319E+07
 -1       249-9.36456E-06 1.16397E-05 9.21311E-06-6.51565E-06 1.94991E+08-1.35493E+07
 -1       250-3.37089E+06-1.03882E+07-4.18642E+08-1.71266E+05 6.18118E+07-8.50614E+06
 -1       251 7.21842E+05 2.34231E+05 2.90900E+07 2.46474E+06 1.22414E+08-4.29509E+06
 -1       252-1.69779E-05 2.28127E-06 5.68666E-06-1.15137E-05 1.08418E+08-7.53361E+06
 -1       253-7.21842E+05-2.34231E+05-2.90900E+07-2.46474E+06 1.22414E+08-4.29509E+06
 -1       254 3.37089E+06 1.03882E+07 4.18642E+08 1.71266E+05 6.18118E+07-8.50614E+06
 -1       255-1.60784E-05-2.18677E-05-2.68407E-06 1.83180E-07-2.81551E+07 1.95640E+06
 -1       256-1.58021E+05-5.59770E+06-3.07897E+08-7.62783E+04-9.32334E+07 1.28453E+07
 -1       257 3.88965E+05 1.09803E+04 2.13947E+07 1.09774E+06-1.84860E+08 6.47847E+06
 -1       258-1.60905E-05-4.77503E-05-3.34159E-06 1.22241E-05-1.62218E+08 1.12720E+07
 -1       259-3.88965E+05-1.09803E+04-2.13947E+07-1.09774E+06-1.84860E+08 6.47847E+06
 -1       260 1.58021E+05 5.59770E+06 3.07897E+08 7.62783E+04-9.32334E+07 1.28453E+07
 -1       261-2.97871E-05-4.86290E-05-1.70153E-05-3.96860E-07-1.11634E+08 7.75710E+06
 -3
 9999
